 &EXT_RESTART
   RESTART_FILE_NAME  ZIF8_100K-1.restart
 &END EXT_RESTART 

 &GLOBAL
   PROJECT_NAME  ZIF8_100K
   RUN_TYPE  MD
   PRINT_LEVEL  MEDIUM
 &END GLOBAL

 &MOTION
   &MD
     ENSEMBLE  NPT_F
     STEPS  5000
     TIMESTEP  0.5
     TEMPERATURE  100
     &THERMOSTAT
       TYPE  NOSE
       REGION  GLOBAL
       &NOSE
         MTS  1
         LENGTH  3
         TIMECON  100
       &END NOSE
     &END THERMOSTAT
     &BAROSTAT
       PRESSURE [MPa]  0.0
       TIMECON  1000
       &THERMOSTAT
         TYPE  SAME_AS_PARTICLE
       &END THERMOSTAT
     &END BAROSTAT
     &PRINT
       FORCE_LAST
     &END PRINT
   &END MD
   &PRINT
     &TRAJECTORY
       FORMAT  XYZ
       &EACH
         MD  10
       &END EACH
     &END TRAJECTORY
     &CELL
       &EACH
         MD  10
       &END EACH
     &END CELL
     &RESTART
       ADD_LAST  SYMBOLIC
     &END RESTART
     &RESTART_HISTORY
       &EACH
         MD  1000
       &END EACH
     &END RESTART_HISTORY
   &END PRINT
 &END MOTION

 &FORCE_EVAL
   METHOD  QS
   STRESS_TENSOR  ANALYTICAL
   &DFT
     BASIS_SET_FILE_NAME  /user/home/gent/vsc419/vsc41948/data/CP2K/BASIS_SETS
     POTENTIAL_FILE_NAME  /user/home/gent/vsc419/vsc41948/data/CP2K/GTH_POTENTIALS
     UKS  F
     MULTIPLICITY  1
     CHARGE  0
     &SCF
       MAX_SCF  25
       MAX_DIIS  8
       EPS_SCF  1.0E-06
       SCF_GUESS  RESTART
       &OT
         MINIMIZER  CG
         PRECONDITIONER  FULL_SINGLE_INVERSE
       &END OT
       ! &DIAGONALIZATION  T
       !   ALGORITHM  STANDARD
       ! &END DIAGONALIZATION
       ! &MIXING  T
       !   METHOD  PULAY_MIXING
       !   ALPHA  0.4
       ! &END MIXING
       &OUTER_SCF  T
         MAX_SCF  25
         EPS_SCF  1.0E-06
       &END OUTER_SCF
       &PRINT
         &RESTART
           ADD_LAST  SYMBOLIC
           &EACH
             GEO_OPT  100
             CELL_OPT 100
             MD  100
           &END EACH
         &END RESTART
       &END PRINT
     &END SCF
     &QS
       METHOD  GPW
       EPS_DEFAULT  1.0E-12
       EXTRAPOLATION  USE_GUESS
     &END QS
     &MGRID
       CUTOFF [Ry]  800.0
       REL_CUTOFF [Ry]  60.0
       NGRIDS  5
     &END MGRID
     &XC
       DENSITY_CUTOFF   1.0E-10
       GRADIENT_CUTOFF  1.0E-10
       TAU_CUTOFF       1.0E-10
       &XC_FUNCTIONAL  PBE
       &END XC_FUNCTIONAL
       &VDW_POTENTIAL
         POTENTIAL_TYPE  PAIR_POTENTIAL
         &PAIR_POTENTIAL
           TYPE  DFTD3(BJ)
           PARAMETER_FILE_NAME  /user/home/gent/vsc419/vsc41948/data/CP2K/dftd3.dat
           REFERENCE_FUNCTIONAL PBE
           R_CUTOFF  25
           ! CALCULATE_C9_TERM  T
         &END PAIR_POTENTIAL
       &END VDW_POTENTIAL
     &END XC
     ! &KPOINTS
     !   SCHEME  MONKHORST-PACK  6 2 2
     !   FULL_GRID  T
     ! &END KPOINTS
   &END DFT
   &SUBSYS
     &CELL
       A  17.396336     0.000056     0.000064
       B   0.000057    17.396336     0.000059
       C   0.000065     0.000059    17.396336 
       MULTIPLE_UNIT_CELL  1 1 1
       PERIODIC  XYZ
     &END CELL
     &KIND Zn
       ELEMENT  Zn
       BASIS_SET TZVP-MOLOPT-SR-GTH 
       POTENTIAL GTH-PBE-q12
     &END KIND
     &KIND C
       ELEMENT  C
       BASIS_SET TZVP-MOLOPT-GTH
       POTENTIAL GTH-PBE-q4
     &END KIND
     &KIND H
       ELEMENT  H
       BASIS_SET TZVP-MOLOPT-GTH
       POTENTIAL GTH-PBE-q1
     &END KIND
     &KIND N
       ELEMENT  N
       BASIS_SET TZVP-MOLOPT-GTH
       POTENTIAL GTH-PBE-q5
     &END KIND
     &TOPOLOGY
       COORDINATE  XYZ
       COORD_FILE_NAME  zif8_opt.xyz
       MULTIPLE_UNIT_CELL  1 1 1
     &END TOPOLOGY
   &END SUBSYS
 &END FORCE_EVAL
