SimulationType                MonteCarlo
NumberOfCycles                5000000
NumberOfInitializationCycles  0
PrintEvery                    500

ContinueAfterCrash            no
WriteBinaryRestartFileEvery   1000

Forcefield                    __forcefield__
RemoveAtomNumberCodeFromLabel no
CutOffVDW                     __rcut__
ChargeMethod                  __chargemethod__
EwaldPrecision                1e-6
OmitAdsorbateAdsorbateCoulombInteractions __omitaacoulomb__

Framework 0
FrameworkName                 __framework__
UnitCells   __nx__ __ny__ __nz__

ExternalTemperature __temp__
ExternalPressure  __press__

NumberOfGrids __ngrids__
GridTypes __guestatoms__
SpacingVDWGrid 0.15
SpacingCoulombGrid __coulombspacing__
UseTabularGrid yes

ComputeDensityProfile3DVTKGrid yes
WriteDensityProfile3DVTKGridEvery 1000
DensityProfile3DVTKGridPoints 150 150 150
AverageDensityOverUnitCellsVTK yes
DensityAveragingTypeVTK UnitCell

Movies yes
WriteMoviesEvery 5000



Component 0 MoleculeName             __guest0__
            MoleculeDefinition
            TranslationProbability   0.3333333333
            RotationProbability      0.3333333333
            ReinsertionProbability   0.3333333333
            SwapProbability          1.0
            CreateNumberOfMolecules  0
