%chk=gaussian.chk
%nproc=20
%mem=90GB
#p opt b3lyp/gen int=grid=ultrafine pseudo=read scf=(tight,maxcycle=5000)

Title Card Required

0 1
Zr      9.171771    -1.692510     0.582031
 O      8.853050    -0.343765    -0.976598
 O      9.960886    -3.027187    -1.054892
 C      9.682806    -3.149381    -2.277844
 O      7.377803    -2.352269    -0.679059
 H      7.374336    -3.272642    -0.953379
 O      7.384587    -1.036934     1.459400
 O     11.329661    -1.084632     0.328330
 C     11.885687    -0.016967    -0.040650
 O      8.497712    -3.705651     1.323105
 C      7.363431    -4.220711     1.502085
 O      9.872246    -1.793960     2.704186
 C      9.568842    -1.153059     3.744600
 O      9.387508     0.461664     1.339471
 H     10.170821     0.641948     1.865203
Zr      9.179346     1.689317    -0.576370
 O      9.956298     1.687339    -2.678588
 O     11.330206     1.053512    -0.403975
 O      9.896282     3.081168     1.043982
 O      8.529974     3.745166    -1.238837
Zr      5.588560    -1.672660     0.588283
 O      4.793679    -3.014256    -1.035099
 O      6.236022    -3.686579     1.335485
 O      4.877887    -1.759824     2.715857
 O      3.461862    -1.055264     0.305323
Zr      7.380555    -0.845320    -2.377661
 O      7.392789     1.424952    -1.978201
 H      7.394141     1.987296    -2.756867
 O      8.821579    -2.504917    -2.933292
 O      5.944983     0.101678    -3.808006
 C      5.096004     1.024371    -3.695594
 O      5.918926    -2.497093    -2.923772
 C      5.062029    -3.138121    -2.259965
 O      8.819869     0.089528    -3.808941
 C      9.680565     1.001223    -3.696555
 O      5.921040    -0.331324    -0.975139
Zr      5.608137     1.702928    -0.574395
 O      7.395212     1.738210     0.510479
 O      6.270339     3.754712    -1.234407
 C      7.402061     4.283382    -1.396090
 O      4.896550     3.101746     1.046174
 C      5.197589     3.232573     2.262500
 O      4.835451     1.719493    -2.679837
 O      5.392256     0.481378     1.342160
 H      4.602804     0.666579     1.857084
 O      3.473317     1.070586    -0.426949
 C      2.883955    -0.002046    -0.097652
 C      1.391965    -0.015417    -0.156507
Zr      7.390999     0.835202     2.395013
 O      6.019922    -0.179179     3.860302
 C      5.185373    -1.115336     3.752910
 O      8.772857     2.534347     2.927153
 C      9.602751     3.209273     2.261759
 O      6.026374     2.554287     2.925206
 O      8.753272    -0.201018     3.855268
Zr     -4.397809    -1.668411     0.591379
 O     -4.197289     0.478585     1.336338
 H     -3.406416     0.657173     1.851413
 O     -2.275846    -1.051234     0.290960
 C     -1.699885     0.001671    -0.115704
 C     -0.207380    -0.012716    -0.167121
 O     -3.613828    -3.014795    -1.032089
 C     -3.885384    -3.133746    -2.256179
 O     -6.189083    -2.347171    -0.665976
 H     -6.182290    -3.268662    -0.936083
 O     -4.730719    -0.329697    -0.976871
 O     -3.668747    -1.767777     2.715743
 C     -3.978527    -1.137087     3.762078
 O     -6.193829    -1.036995     1.467541
 O     -5.062784    -3.670067     1.347591
 C     -6.195415    -4.186433     1.523668
Zr     -4.429748     1.703483    -0.592257
 O     -5.125014     3.760108    -1.262261
 O     -3.666682     1.732054    -2.713282
 O     -3.727144     3.097930     1.018793
 O     -2.290284     1.071904    -0.451471
Zr     -6.190346    -0.847395    -2.372694
 O     -7.669932    -0.348694    -0.971552
 O     -4.769791     0.099909    -3.823891
 C     -3.941292     1.043044    -3.730493
 O     -7.624085     0.065026    -3.805600
 C     -8.489706     0.972463    -3.697466
 O     -6.213271     1.417931    -1.984813
 H     -6.218781     1.975551    -2.766642
 O     -4.739091    -2.488544    -2.919254
 O     -7.622407    -2.500057    -2.909031
 C     -8.482020    -3.137248    -2.247161
Zr     -7.992912    -1.678563     0.597939
 O     -8.202940     0.461340     1.345512
 H     -8.989363     0.641364     1.866500
 O     -8.704838    -1.764535     2.726758
 C     -8.404058    -1.110743     3.759408
 O    -10.162534    -1.079530     0.336367
 C    -10.718550    -0.018093    -0.050088
 O     -7.327590    -3.666647     1.347155
 O     -8.769499    -3.008993    -1.027991
Zr     -6.191238     0.825513     2.396820
 O     -7.558054     2.522428     2.920184
 C     -8.396801     3.188925     2.258975
 O     -4.829249     2.533650     2.912038
 C     -4.010276     3.213215     2.240612
 O     -6.208265     1.724860     0.503896
 O     -7.557494    -0.185076     3.867178
 O     -4.808697    -0.197216     3.871779
Zr     -8.000893     1.676714    -0.576815
 O     -8.699853     3.065434     1.044150
 O     -8.778642     1.656530    -2.683308
 O     -7.384426     3.716782    -1.257286
 C     -6.264167     4.264389    -1.440376
 O    -10.158300     1.054150    -0.402970
 H     -6.298802     5.295021    -1.820692
 H     -3.462816     3.984372     2.791673
 H     -3.413877     1.307508    -4.653344
 H     -3.324134    -3.905334    -2.800375
 H     -6.202029    -5.225246     1.846821
 H     -9.033387    -3.911412    -2.790369
 H     -9.040076     1.202440    -4.608657
 H    -11.820027    -0.016106    -0.064287
 H     -3.446183    -1.436121     4.678008
 H     -8.962743    -1.364179     4.667198
 H     -8.944380     3.955040     2.814722
 H      7.404711     5.331357    -1.731167
 H      4.658992     4.018549     2.812967
 H     12.984276    -0.008220    -0.023640
 H      7.353497    -5.268456     1.817952
 H     10.093950    -1.451759     4.657714
 H      4.647089    -1.391814     4.666568
 H     10.244354     1.237927    -4.601566
 H      4.526943     1.264788    -4.596501
 H     10.245162    -3.921495    -2.828939
 H      4.490915    -3.911020    -2.798898
 H     10.149708     3.988134     2.812185

H C O 0
6-311g(d,p)
****
Zr 0
LanL2DZ
****

Zr 0
LanL2DZ ecp












