%chk=gaussian.chk
%nproc=20
%mem=90GB
#p opt b3lyp/gen int=grid=ultrafine pseudo=read scf=(tight,maxcycle=5000)

Title Card Required

0 1
 N     -2.832899    -1.177920    -0.044667
 N      2.832886     1.177869    -0.044682
 N     -1.445419    -1.157573    -0.039812
 N      1.445406     1.157522    -0.039806
 C     12.017197     3.205267     1.931974
 C     12.079742    -1.195887     3.491653
 C     13.992274    -0.154859    -0.637517
 C     -5.046119    -0.067701     0.348601
 C     -7.722564    -3.314329     2.414300
 C     -7.785321     1.084839     3.973582
 C      7.785271    -1.084957     3.973527
 C     11.531015    -3.157383    -2.534770
 C      9.489260     4.276807    -1.410160
 C     -9.609336     4.195752     1.593065
 C     -6.835012    -1.033974    -3.466021
 C    -12.017268    -3.205282     1.931853
 C     11.473479     0.920227    -3.979772
 C      7.722483     3.314250     2.414353
 C      9.609360    -4.195787     1.592962
 C     -9.489288    -4.276769    -1.410266
 C    -12.079785     1.195835     3.491640
 C     -6.892950     3.039540    -2.022158
 C      6.893019    -3.039517    -2.022276
 C      6.835057     1.034032    -3.466040
 C      5.046112     0.067638     0.348519
 C    -13.992261     0.154932    -0.637589
 C    -11.530936     3.157473    -2.534725
 C    -11.473423    -0.920102    -3.979828
 C     -3.555577    -0.048686     0.354930
 C      3.555570     0.048625     0.354875
 C     -0.741306    -0.010411     0.359947
 C      0.741299     0.010350     0.359935
 N     -2.865295     1.099704     0.757229
 N      2.865294    -1.099774     0.757158
 N     -1.477756     1.117016     0.757556
 N      1.477755    -1.117087     0.757505
 O     11.318754    -0.208098     3.667934
 O     -8.577875    -2.599560     3.000404
 O     -7.327016     1.707466     2.979403
 O     -5.620249    -1.136651    -0.023981
 O     10.599329    -2.515052    -3.087479
 O     -7.677657    -0.121839    -3.676289
 O    -12.204378    -3.034063     0.698179
 O    -10.718554     3.722283     1.230349
 O     13.464301    -1.186637    -0.144739
 O     12.204330     3.034081     0.698299
 O      8.367695     3.763991    -1.154559
 O      7.326990    -1.707565     2.979325
 O      7.677717     0.121912    -3.676317
 O    -10.599248     2.515144    -3.087434
 O    -11.847778    -1.621345    -3.002992
 O    -13.464284     1.186691    -0.144776
 O      8.577792     2.599476     3.000454
 O    -11.318810     0.208033     3.667910
 O     -6.783696     2.948530    -0.770809
 O     -8.367721    -3.763973    -1.154633
 O      5.620236     1.136608    -0.024016
 O      6.783744    -2.948539    -0.770927
 O     10.718579    -3.722296     1.230277
 O     11.847810     1.621450    -3.002913
 O      7.257324     3.160068     1.254182
 O      8.472875    -3.665235     1.478416
 O     10.563280     0.049940    -3.996246
 O     -7.713975     2.442138    -2.767273
 O    -10.613331    -3.708824    -1.403973
 O    -12.273820     1.834827     2.423758
 O     12.273801    -1.834852     2.423758
 O     13.434059     0.943363    -0.899139
 O     11.279996     2.529929     2.697728
 O     -8.616883     0.139038     3.971121
 O     -5.650446     0.982553     0.726573
 O     -7.257384    -3.160124     1.254141
 O     11.914104    -3.077228    -1.337738
 O     10.613310     3.708875    -1.403863
 O      8.616822    -0.139146     3.971104
 O    -11.280072    -2.529971     2.697635
 O     -8.472855     3.665189     1.478526
 O     -6.717212    -1.748420    -2.435591
 O      6.717232     1.748451    -2.435594
 O      5.650445    -0.982613     0.726485
 O      7.714050    -2.442087    -2.767363
 O    -10.563214    -0.049825    -3.996265
 O    -13.434055    -0.943290    -0.899229
 O    -11.914045     3.077293    -1.337701
 H      6.992803     0.723426     2.120397
 H    -12.529804    -0.585380     1.509429
 H     -9.355333     3.280201    -0.935739
 H     -9.280930    -1.967253    -2.795655
 H      9.280953     1.967323    -2.795610
 H      9.355388    -3.280176    -0.935824
 H     12.529772     0.585382     1.509493
 H     -6.992848    -0.723502     2.120423
 O    -11.687236    -0.420504     1.078222
 O     -9.407599     2.355777    -0.679419
 O     -9.354293    -1.412218    -2.014917
 O     -7.718498    -0.522278     1.523677
 O      7.718466     0.522222     1.523661
 O      9.354310     1.412269    -2.014885
 O      9.407638    -2.355758    -0.679479
 O     11.687213     0.420506     1.078268
 O      9.677746    -1.037844     1.439364
 O      9.638386     1.730202     0.458517
 O     10.884165    -0.383743    -1.159304
 O      7.965768    -0.310543    -0.835780
 O     -7.965751     0.310548    -0.835746
 O     -9.638414    -1.730209     0.458472
 O     -9.677758     1.037815     1.439388
 O    -10.884141     0.383791    -1.159317
Zr      9.827444     0.843463     2.345621
Zr     -9.827493    -0.843514     2.345595
Zr     -7.783989     1.637640     0.771254
Zr     -7.736187    -1.727201    -0.421377
Zr     11.340849    -1.731920     0.376266
Zr     11.292963     1.641297    -0.819256
Zr      9.256989    -0.844150    -2.393249
Zr     -9.256939     0.844209    -2.393224
Zr    -11.292969    -1.641252    -0.819327
Zr    -11.340834     1.731936     0.376278
Zr      7.736174     1.727193    -0.421364
Zr      7.783995    -1.637676     0.771185
 H      9.485565     5.342656    -1.681380
 H      9.635146    -5.194177     2.053567
 H     -9.635118     5.194130     2.053695
 H     -9.485601    -5.342611    -1.681511
 H    -15.068650     0.216503    -0.854540
 H     15.068667    -0.216412    -0.854452
 H      6.126731     1.237570    -4.282380
 H     11.994759     1.096033    -4.932028
 H     12.065097    -3.880374    -3.168391
 H      6.197739    -3.729712    -2.522108
 H     -6.197653     3.729738    -2.521961
 H    -12.064998     3.880487    -3.168337
 H     -6.126674    -1.237500    -4.282355
 H    -11.994689    -1.095878    -4.932097
 H      7.407326    -1.396346     4.958296
 H     12.649543    -1.533095     4.369745
 H     12.570498     4.034314     2.396700
 H      7.327994     4.166536     2.986713
 H     -7.328096    -4.166634     2.986645
 H     -7.407387     1.396198     4.958365
 H    -12.649595     1.533027     4.369732
 H    -12.570586    -4.034334     2.396549

H C O N 0
6-311g(d,p)
****
Zr 0
LanL2DZ
****

Zr 0
LanL2DZ ecp












