%chk=gaussian.chk
%nproc=20
%mem=90GB
#p opt b3lyp/gen int=grid=ultrafine pseudo=read scf=(tight,maxcycle=5000)

Title Card Required

0 1
Zr      9.162370    -1.789317    -0.217740
 O      8.726519     0.000837    -1.212349
 O      9.722674    -2.490210    -2.284048
 C      9.341672    -2.160302    -3.438217
 O      7.223655    -1.998157    -1.418022
 H      7.160096    -2.782646    -1.968994
 O      7.504844    -1.469381     1.019379
 O     11.293877    -1.129394    -0.529183
 C     11.836913     0.000584    -0.649267
 O      8.512138    -3.942076    -0.078415
 C      7.395860    -4.494821     0.107259
 O     10.087110    -2.583613     1.676144
 C      9.897820    -2.336670     2.896570
 O      9.534184    -0.000752     1.163768
 H     10.377464    -0.001005     1.624149
Zr      9.162203     1.789690    -0.215372
 O      9.722560     2.493474    -2.280733
 O     11.293739     1.130340    -0.527774
 O     10.086961     2.581407     1.679600
 O      8.511948     3.942291    -0.073191
Zr      5.606470    -1.785928     0.192125
 O      4.591719    -2.489423    -1.696132
 O      6.266970    -3.941002     0.179301
 O      5.138928    -2.583006     2.249159
 O      3.476912    -1.124297     0.372919
Zr      7.097466     0.001670    -2.526968
 O      7.223555     2.000066    -1.415378
 H      7.159956     2.785214    -1.965401
 O      8.419789    -1.357878    -3.742265
 O      5.534152     1.362728    -3.408815
 C      4.702906     2.162632    -2.903561
 O      5.534136    -1.358310    -3.410669
 C      4.702947    -2.158895    -2.906420
 O      8.419654     1.362945    -3.740357
 C      9.341532     2.164998    -3.435302
 O      5.808773     0.000544    -0.878039
Zr      5.606471     1.785586     0.194467
 O      7.504785     1.467981     1.021363
 O      6.266762     3.940793     0.184492
 C      7.395631     4.494752     0.113125
 O      5.138845     2.579837     2.252581
 C      5.602567     2.331186     3.396940
 O      4.591625     2.491641    -1.692868
 O      5.564856    -0.001129     1.623200
 H      4.842132    -0.001563     2.256304
 O      3.476909     1.123749     0.374343
 C      2.890558    -0.000271     0.369648
 C      1.394650    -0.000272     0.373426
 N      0.694058    -1.211847     0.372386
 N      0.694063     1.211308     0.374043
Zr      7.676322    -0.001699     2.502703
 O      6.447040    -1.455411     3.706640
 C      5.602674    -2.335839     3.393833
 O      9.149014     1.450279     3.396277
 C      9.897740     2.332827     2.899703
 O      6.447020     1.450430     3.708606
 O      9.149063    -1.454796     3.394284
Zr     -5.606503    -1.785921     0.192172
 O     -5.564894    -0.001103     1.623264
 H     -4.842172    -0.001485     2.256371
 O     -3.476930    -1.124289     0.372981
 C     -2.890586    -0.000265     0.369782
 C     -1.394672    -0.000264     0.373480
 N     -0.694086    -1.211843     0.372410
 N     -0.694080     1.211312     0.374068
 O     -4.591700    -2.489540    -1.696019
 C     -4.702892    -2.159001    -2.906314
 O     -7.223614    -1.998181    -1.418010
 H     -7.160043    -2.782660    -1.968990
 O     -5.808726     0.000548    -0.877974
 O     -5.139009    -2.583048     2.249183
 C     -5.602706    -2.335874     3.393875
 O     -7.504877    -1.469365     1.019384
 O     -6.267023    -3.941020     0.179273
 C     -7.395934    -4.494791     0.107252
Zr     -5.606494     1.785619     0.194535
 O     -6.266824     3.940835     0.184497
 O     -4.591559     2.491734    -1.692771
 O     -5.138954     2.579845     2.252613
 O     -3.476929     1.123763     0.374435
Zr     -7.097358     0.001631    -2.526929
 O     -8.726447     0.000856    -1.212372
 O     -5.534059     1.362740    -3.408671
 C     -4.702825     2.162669    -2.903456
 O     -8.419559     1.362777    -3.740383
 C     -9.341401     2.164892    -3.435387
 O     -7.223526     2.000059    -1.415355
 H     -7.159860     2.785231    -1.965336
 O     -5.534024    -1.358377    -3.410585
 O     -8.419599    -1.357956    -3.742320
 C     -9.341500    -2.160349    -3.438257
Zr     -9.162364    -1.789294    -0.217808
 O     -9.534230    -0.000737     1.163684
 H    -10.377458    -0.001036     1.624159
 O    -10.087197    -2.583575     1.676105
 C     -9.897908    -2.336612     2.896518
 O    -11.293875    -1.129384    -0.529371
 C    -11.836914     0.000586    -0.649449
 O     -8.512206    -3.942012    -0.078390
 O     -9.722520    -2.490239    -2.284085
Zr     -7.676341    -0.001705     2.502707
 O     -9.149035     1.450267     3.396189
 C     -9.897746     2.332836     2.899632
 O     -6.447081     1.450435     3.708681
 C     -5.602701     2.331235     3.396979
 O     -7.504845     1.468008     1.021386
 O     -9.149160    -1.454707     3.394209
 O     -6.447081    -1.455460     3.706703
Zr     -9.162247     1.789707    -0.215426
 O    -10.086994     2.581416     1.679536
 O     -9.722449     2.493426    -2.280842
 O     -8.511998     3.942266    -0.073228
 C     -7.395713     4.494761     0.113129
 O    -11.293730     1.130345    -0.527970
 H     -7.406810     5.589799     0.214319
 H     -5.217448     2.948110     4.221887
 H     -3.999373     2.637471    -3.602854
 H     -3.999422    -2.633006    -3.606243
 H     -7.407084    -5.589932     0.207067
 H     -9.867748    -2.636579    -4.278257
 H     -9.867533     2.642184    -4.274842
 H    -12.913063     0.000810    -0.875933
 H     -5.217437    -2.953807     4.217997
 H    -10.460267    -2.955879     3.610378
 H    -10.460106     2.951180     3.614286
 H      7.406677     5.589795     0.214281
 H      5.217248     2.947982     4.221890
 H     12.913059     0.000795    -0.875744
 H      7.406961    -5.589973     0.207104
 H     10.460212    -2.955939     3.610402
 H      5.217452    -2.953776     4.217962
 H      9.867719     2.642307    -4.274722
 H      3.999472     2.637472    -3.602942
 H      9.867933    -2.636520    -4.278233
 H      3.999459    -2.632857    -3.606368
 H     10.460135     2.951170     3.614347

H C O N 0
6-311g(d,p)
****
Zr 0
LanL2DZ
****

Zr 0
LanL2DZ ecp












