%chk=gaussian.chk
%nproc=24
%mem=53GB
#p opt b3lyp/gen int=grid=ultrafine pseudo=read scf=(tight,maxcycle=5000)

Title Card Required

0 1
Zr     0      1.944655     0.337469    -1.572044
Zr     0     -1.944729    -0.336992     1.570792
Zr     0     -1.441163     1.458364    -1.471081
Zr     0     -0.711239    -2.030615    -1.316556
Zr     0      0.711229     2.032126     1.315578
Zr     0      1.441292    -1.456491     1.470537
 O     0     -0.679792    -2.141157     0.965758
 O     0     -3.344403    -2.038920     1.157645
 O     0     -2.182560    -1.738846    -2.981845
 O     0     -2.643667     0.461873    -3.079255
 O     0      2.553922    -0.475680     3.151275
 O     0      2.093565     1.725098     3.053780
 O     0      0.552616    -2.644289    -3.063468
 O     0      2.228411    -1.150802    -3.224779
 O     0      2.293443     0.510821     0.680050
 O     0      0.530301    -2.280804     3.345772
 O     0      2.500161     3.174915     0.595184
 O     0      3.277711     2.105468    -1.226022
 O     0     -1.497279     1.765053     0.792641
 O     0     -2.161522     1.083450     3.290488
 O     0      0.498763     1.571547    -0.709145
 O     0     -2.566683    -3.106842    -0.664279
 O     0      0.169425    -4.010859    -0.745383
 O     0     -3.900848     0.619654     1.038846
 O     0     -1.682796    -0.373558    -0.499693
 O     0      1.098553    -1.293590    -0.582257
 O     0     -1.605677    -1.574715     3.408972
 O     0     -0.486212     2.577708     3.130120
 O     0     -0.116366    -0.131908    -2.440221
 O     0      3.550758    -1.844513     0.818335
 O     0     -3.582972     1.752777    -0.879470
 O     0      0.085200     0.097880     1.789227
 O     0      1.527066    -3.648532     1.012667
 O     0      3.868376    -0.712547    -1.100724
 C     0      2.152230    -2.929182    -4.776571
 C     0      1.609785    -2.192510    -3.596940
 C     0      1.497335    -4.070731    -5.248992
 C     0      3.126188    -4.265804    -7.012488
 C     0      3.787076    -3.133353    -6.540284
 C     0      3.301720    -2.464575    -5.423062
 C     0      1.984974    -4.737377    -6.366433
 C     0     -7.546314     3.031533    -0.879769
 C     0     -6.569533     1.376471     1.144177
 C     0     -5.484064    -3.793953     1.378796
 C     0     -4.402438     0.087100    -5.193979
 C     0      4.519581     2.464363     6.357779
 C     0     -5.247218    -0.139572    -6.273685
 C     0      3.686102     2.243664     5.268035
 C     0     -3.723057    -0.982772    -4.603299
 C     0      5.185592     1.392992     6.950027
 C     0     -2.788186    -0.736341    -3.466121
 C     0     -4.746166    -2.503940    -6.172892
 C     0      4.182107    -0.124711     5.371855
 C     0     -3.900879    -2.280356    -5.092965
 C     0      5.014943     0.099049     6.461442
 C     0     -5.414502    -1.433344    -6.763808
 C     0      3.518547     0.948302     4.768930
 C     0      2.651807     0.714332     3.576283
 C     0     -0.810017    -2.913029     5.184025
 C     0      5.523524     6.025727     0.314265
 C     0      8.292232    -2.874610    -0.323754
 C     0      0.990434    -4.395079     0.140339
 C     0     -2.055704    -2.878031     5.818208
 C     0     -5.731643     1.777040     0.098898
 C     0      2.206349    -6.335576     1.152023
 C     0      6.456868     5.909461    -0.714042
 C     0      0.242691    -3.638851     5.749811
 C     0     -1.198850    -4.301477     7.561936
 C     0      1.906460    -8.565356     0.293186
 C     0      1.037781    -8.083095    -0.683940
 C     0     -7.890307     1.806915     1.177711
 C     0      0.748140    -6.725391    -0.742400
 C     0      6.357229     4.876649    -1.644305
 C     0     -3.615299     2.953579     6.715164
 C     0     -4.303181     1.344393     0.080116
 C     0     -2.954119     4.084844     7.189577
 C     0      6.490320    -1.603914    -1.292938
 C     0      3.305382     3.043978    -0.374724
 C     0      2.494026    -7.693786     1.208105
 C     0     -4.542480    -3.907088     0.351280
 C     0     -8.375309     2.636584     0.168493
 C     0     -5.690390    -5.856241    -0.490299
 C     0     -3.406519    -2.941913     0.270485
 C     0      6.146614    -2.826646     0.769351
 C     0     -6.522159    -4.712958     1.472283
 C     0     -0.611430    -2.196671     3.889535
 C     0     -4.651126    -4.938807    -0.586232
 C     0     -6.621513    -5.744575     0.540586
 C     0     -2.248562    -3.572489     7.006242
 C     0     -3.139297     2.296699     5.587054
 C     0      5.657488    -1.989186    -0.237909
 C     0     -1.334624     3.903246     5.416402
 C     0      7.463419    -3.268167     0.725191
 C     0     -1.812901     4.557988     6.544796
 C     0     -6.225170     2.602499    -0.916089
 C     0      5.325848     3.951142    -1.542242
 C     0     -1.508089     2.089614     3.699096
 C     0      4.253729    -1.485697    -0.173307
 C     0      0.046858    -4.332343     6.937930
 C     0      4.491014     5.101704     0.418850
 C     0      7.806732    -2.046892    -1.334347
 C     0      4.392182     4.058522    -0.506937
 C     0      1.328482    -5.848254     0.178930
 C     0     -1.999684     2.772876     4.931619
 H     0      0.611587    -4.415570    -4.731969
 H     0      4.676240    -2.773214    -7.045240
 H     0      3.795319    -1.581516    -5.039187
 H     0      1.477088    -5.620726    -6.736625
 H     0      5.484494    -3.115577     1.574886
 H     0      7.846109    -3.914834     1.506637
 H     0      1.199466    -3.650009     5.244610
 H     0     -3.914034    -5.006293    -1.375495
 H     0     -4.253417     1.082643    -4.797185
 H     0      4.653879     3.468212     6.744488
 H     0     -5.772610     0.688533    -6.735735
 H     0      3.160749     3.059356     4.789045
 H     0     -4.883081    -3.508472    -6.556890
 H     0      4.035937    -1.119513     4.972154
 H     0     -3.368394    -3.094370    -4.619055
 H     0      5.533263    -0.730712     6.928489
 H     0      0.860420    -4.898681     7.376868
 H     0      0.586641    -8.766118    -1.394735
 H     0     -5.774889    -6.658992    -1.213998
 H     0     -2.855878    -2.307594     5.365336
 H     0     -7.930513     3.674509    -1.663516
 H     0     -0.947020    -2.982016     1.345062
 H     0      5.604712     6.833425     1.032816
 H     0      3.756005     5.168514     1.210111
 H     0     -1.301340     5.436682     6.920941
 H     0     -8.541190     1.500506     1.988729
 H     0      5.228865     3.138440    -2.249952
 H     0     -4.500731     2.588774     7.223304
 H     0      3.171454    -8.075088     1.963736
 H     0      6.090939    -0.958100    -2.063775
 H     0      2.646936    -5.638968     1.852997
 H     0      8.455574    -1.746776    -2.149346
 H     0     -3.214369    -3.549783     7.498170
 H     0     -3.636614     1.418402     5.197155
 H     0     -6.168550     0.734661     1.917522
 H     0      7.084592     4.793688    -2.443894
 H     0     -7.251380    -4.629470     2.270128
 H     0     -5.560970     2.897931    -1.717540
 H     0     -0.452611     4.252823     4.896187
 H     0     -5.383605    -2.986323     2.091825
 H     0      0.074368    -6.326813    -1.489339
 H     0      3.193951     0.710962     0.947197
 H    -1      5.840786     1.566992     7.791536
 H    -1     -6.064237    -1.607155    -7.609372
 H    -1      2.123457    -9.622421     0.343751
 H    -1      9.318718    -3.210931    -0.352044
 H    -1     -9.399874     2.978234     0.200475
 H    -1     -1.352683    -4.848687     8.480905
 H    -1      3.499212    -4.779942    -7.886726
 H    -1     -3.330522     4.600287     8.061247
 H    -1     -7.423867    -6.464127     0.619758
 H    -1      7.264892     6.622806    -0.788795

H C O 0
6-31g(d)
****
Zr 0
LanL2DZ
****

Zr 0
LanL2DZ ecp












