%chk=gaussian.chk
%nproc=24
%mem=62GB
#p opt b3lyp/gen int=grid=ultrafine pseudo=read scf=(tight,maxcycle=5000)

Title Card Required

0 1
Zr    -1     -1.476565     0.456382     1.919474
Zr    -1      1.388671     0.288368    -1.962686
Zr    -1      1.438152    -1.341044     1.147136
Zr    -1     -1.394178    -1.322372    -1.099502
Zr    -1      1.318340     2.182045     0.884300
Zr    -1     -1.376976     2.046250    -0.938175
 O    -1     -0.665237     0.451686    -2.203290
 O    -1      0.847375    -1.930801     3.207514
 O    -1      1.029914    -0.978442    -3.739603
 O    -1     -0.837673    -3.475051    -0.690610
 O    -1      0.928975    -3.464015     0.745146
 O    -1     -0.848711     4.211281    -0.928663
 O    -1      0.854171     4.314538     0.576339
 O    -1     -3.221026    -2.075811     0.044504
 O    -1     -3.246113    -0.915471     2.003224
 O    -1     -0.763517     2.296043     1.127516
 O    -1      2.407051     0.411224     0.043834
 O    -1      3.070965     1.797457    -2.244890
 O    -1      0.596722     0.417732     1.764080
 O    -1     -0.782191    -2.155164    -3.055619
 O    -1     -3.116667    -0.640698    -2.300694
 O    -1      3.134819    -1.145466    -2.011608
 O    -1      0.656347    -1.147418    -0.766368
 O    -1     -1.971096     0.343048    -0.017538
 O    -1      3.121178     2.919131    -0.262107
 O    -1     -0.824476    -1.542445     1.168198
 O    -1     -0.915746    -0.623169     3.802601
 O    -1     -3.211627     2.817933     0.096009
 O    -1      3.073322    -0.500449     2.425884
 O    -1      2.864625     1.767772     2.428922
 O    -1      3.195438    -2.145130     0.025994
 O    -1      0.711575     2.026250    -1.010289
 O    -1     -3.055395     1.632057    -2.342170
 O    -1     -3.196441     1.839487     2.143434
 C    -1     -4.990574    -2.438451     1.589273
 C    -1     -3.729693    -1.752959     1.168466
 C    -1     -5.563014    -3.435762     0.790032
 C    -1     -7.278759    -3.781736     2.460686
 C    -1     -6.717889    -2.770199     3.250324
 C    -1     -5.581455    -2.101430     2.815555
 C    -1     -6.702494    -4.102681     1.223139
 C    -1      6.550405    -4.357623    -1.109366
 C    -1      5.392304    -2.510517    -2.854166
 C    -1      1.238636    -2.551970    -6.044233
 C    -1      1.051719    -6.210224     0.769144
 C    -1      0.999593     8.443582     0.312988
 C    -1      1.047197    -7.595635     0.828821
 C    -1      0.995071     7.058169     0.372665
 C    -1      0.065552    -5.537456     0.036134
 C    -1      0.013426     9.116346    -0.420022
 C    -1      0.052386    -4.045065     0.017859
 C    -1     -0.922247    -7.651131    -0.589656
 C    -1     -0.974373     7.002672    -1.045812
 C    -1     -0.917429    -6.263175    -0.649413
 C    -1     -0.969555     8.390632    -1.105569
 C    -1      0.055983    -8.322557     0.155772
 C    -1      0.003857     6.331248    -0.300384
 C    -1     -0.002197     4.844965    -0.211882
 C    -1     -7.315935     4.734358     2.157403
 C    -1     -1.121177    -2.008668     6.258559
 C    -1     -3.548317     0.499277    -2.666577
 C    -1     -0.051050    -1.544519     4.024710
 C    -1      4.826697    -2.736341    -1.590868
 C    -1     -5.364288     1.680551    -3.958139
 C    -1      6.314695     2.026638     4.830025
 C    -1      0.851924    -3.258254     5.606761
 C    -1      4.616120     0.749899     3.677577
 C    -1     -6.466885    -0.787281    -4.673358
 C    -1      5.212100    -0.441194     4.114802
 C    -1      6.539659    -3.194600    -3.237609
 C    -1     -5.328334    -0.744763    -3.886123
 C    -1      6.350648    -0.398676     4.902040
 C    -1      6.647070     3.786394    -3.329819
 C    -1      3.626014    -1.957602    -1.164512
 C    -1      7.165702     4.752954    -2.454680
 C    -1     -5.589323     3.165619     2.812866
 C    -1     -6.509175     1.638812    -4.747048
 C    -1      5.169807     1.984898     4.041115
 C    -1      0.196929    -2.723130    -5.123589
 C    -1      7.130949    -4.114242    -2.362484
 C    -1     -0.706451    -4.516669    -6.477339
 C    -1      0.136766    -1.882977    -3.889620
 C    -1     -0.105838    -2.270809     5.329105
 C    -1     -5.497818     4.244477     0.644215
 C    -1      1.303595    -3.353461    -7.175936
 C    -1     -0.772396    -3.712275    -5.345433
 C    -1      0.331402    -4.339867    -7.401877
 C    -1      0.794712    -3.976080     6.793911
 C    -1      5.469769     3.115814    -3.019066
 C    -1     -4.944441     3.364155     1.586358
 C    -1      5.309391     4.381258    -0.957488
 C    -1     -6.675382     4.926897     0.927007
 C    -1      6.485828     5.050483    -1.267883
 C    -1     -1.179473    -2.729338     7.446028
 C    -1      3.423122     0.669083     2.789318
 C    -1      5.406290    -3.671677    -0.724485
 C    -1      3.561672     2.659990    -1.428656
 C    -1     -3.686288     2.627385     1.255392
 C    -1     -0.224731    -3.719681     7.719872
 C    -1     -6.766266     3.846339     3.095246
 C    -1     -4.767368     0.488530    -3.528472
 C    -1     -6.994050     0.402690    -4.993810
 C    -1      6.911616     0.834616     5.259688
 C    -1      4.795101     3.406466    -1.826975
 H    -1     -5.092246    -3.680988    -0.161312
 H    -1     -7.183343    -2.529437     4.205233
 H    -1     -5.124060    -1.317231     3.416644
 H    -1     -7.159169    -4.888197     0.622768
 H    -1     -4.984799     4.378385    -0.306913
 H    -1     -7.110518     5.620505     0.208268
 H    -1     -1.860346    -1.241605     6.030980
 H    -1     -1.570849    -3.835862    -4.615448
 H    -1      1.808637    -5.625083     1.288910
 H    -1      1.756511     9.028718     0.832754
 H    -1      1.802599    -8.137836     1.395041
 H    -1      1.750472     6.515965     0.938884
 H    -1     -1.682370    -8.235101    -1.106945
 H    -1     -1.734496     6.418702    -1.563101
 H    -1     -1.672815    -5.718722    -1.214388
 H    -1     -1.724941     8.935083    -1.670545
 H    -1      4.766772    -1.389296     3.818862
 H    -1     -1.457084    -5.283311    -6.665582
 H    -1      1.633765    -3.450791     4.874073
 H    -1      7.022234    -5.082740    -0.448289
 H    -1      6.894422     5.810234    -0.602619
 H    -1      7.001771    -3.022339    -4.209037
 H    -1      1.535195    -4.740640     7.024603
 H    -1      7.187481     3.576060    -4.251421
 H    -1      4.695263     2.900205     3.689325
 H    -1     -5.152920     2.472726     3.531284
 H    -1     -4.917210     2.629241    -3.663312
 H    -1      6.761775     2.975328     5.124848
 H    -1     -7.278430     3.710191     4.046187
 H    -1     -1.960251    -2.537493     8.180441
 H    -1      5.062452     2.355398    -3.684656
 H    -1      4.921260    -1.784049    -3.514767
 H    -1      2.102925    -3.229215    -7.904403
 H    -1      4.949531    -3.839120     0.250091
 H    -1      4.770141     4.593391    -0.035942
 H    -1      3.373180     0.458053     0.027979
 H    -1      1.990367    -1.787583    -5.852749
 H    -1     -4.851332    -1.657200    -3.533183
 H    -1      6.827650    -1.311113     5.254976
 H    -1     -1.207808    -2.317862     1.601037
 H    -1     -6.983810     2.557382    -5.086791
 H    -1     -6.908410    -1.741988    -4.955915
 H     0     -0.274262    -4.281615     8.648346
 H     0      8.031871    -4.645661    -2.656721
 H     0      0.049258    -9.408085     0.207241
 H     0      0.014046    10.202318    -0.461783
 H     0      7.807311     0.866685     5.874034
 H     0     -8.164376    -4.311487     2.801154
 H     0      0.385782    -4.964804    -8.288972
 H     0      8.088650     5.270717    -2.702045
 H     0     -7.788099     0.400744    -5.403668
 H     0     -8.073039     5.316712     2.438757

H C O 0
6-31g(d)
****
Zr 0
LanL2DZ
****

Zr 0
LanL2DZ ecp












