%chk=gaussian.chk
%nproc=24
%mem=62GB
#p opt b3lyp/gen int=grid=ultrafine pseudo=read scf=(tight,maxcycle=5000)

Title Card Required

0 1
Zr    -1      0.000237     2.063760     0.007518
Zr    -1      0.012997    -2.796912    -0.008191
Zr    -1     -1.685676    -0.479768     1.703151
Zr    -1     -1.668072    -0.582578    -1.790635
Zr    -1      1.681671    -0.585216     1.786178
Zr    -1      1.696400    -0.460370    -1.708571
 O    -1      0.152731    -1.891915    -1.853152
 O    -1     -2.463808     1.464013     2.557494
 O    -1     -1.351746    -4.127505    -1.207711
 O    -1     -3.865866    -0.602494    -1.131783
 O    -1     -3.843309    -0.734235     1.146548
 O    -1      3.854145    -0.707919    -1.159358
 O    -1      3.880789    -0.592117     1.119992
 O    -1     -2.397119     1.416718    -2.620654
 O    -1     -1.311104     3.029271    -1.439206
 O    -1      1.971836     0.895697     0.035480
 O    -1      2.401058     1.413579     2.630555
 O    -1      1.308502     3.029115     1.459705
 O    -1     -0.131653    -1.903518     1.840966
 O    -1      1.378409    -4.128692     1.191421
 O    -1     -0.008459     0.596698     1.473142
 O    -1     -2.399763    -2.553884    -2.472934
 O    -1     -0.971222    -0.526477    -3.887090
 O    -1     -1.662296    -1.642846    -0.030467
 O    -1      0.015181     0.606446    -1.468854
 O    -1      2.425848    -2.557149     2.459472
 O    -1     -1.966240     0.885737    -0.030005
 O    -1     -1.381519     3.093156     1.410075
 O    -1      2.458037     1.495704    -2.551787
 O    -1     -1.286943    -0.637996     3.856212
 O    -1      0.980349    -0.545114     3.882941
 O    -1      1.681809    -1.634280     0.019799
 O    -1      1.296259    -0.608178    -3.863568
 O    -1      1.377367     3.112561    -1.385737
 C    -1     -2.777643     3.706712    -3.130235
 C    -1     -2.110863     2.626216    -2.352032
 C    -1     -3.740278     3.393779    -4.095902
 C    -1     -4.101223     5.754134    -4.469542
 C    -1     -3.117371     6.066651    -3.525287
 C    -1     -2.458824     5.044843    -2.856982
 C    -1     -4.400694     4.415734    -4.762351
 C    -1     -2.742561    -6.162595    -2.624516
 C    -1     -6.638608    -0.846784     1.207595
 C    -1      8.026146    -0.846784     1.207595
 C    -1     -8.028488    -0.841006     1.197608
 C    -1      6.636267    -0.841006     1.197608
 C    -1     -5.925600    -0.818090     0.001083
 C    -1      8.739155    -0.818090     0.001083
 C    -1     -4.430279    -0.727418     0.001670
 C    -1     -8.014362    -0.813235    -1.225262
 C    -1      6.650393    -0.813235    -1.225262
 C    -1     -6.624354    -0.815469    -1.215211
 C    -1      8.040400    -0.815469    -1.215211
 C    -1     -8.727184    -0.809951    -0.018197
 C    -1      5.937571    -0.809951    -0.018197
 C    -1      4.442783    -0.711557    -0.015073
 C    -1      4.342867     4.399703     4.845382
 C    -1      4.359560     5.724475    -4.435309
 C    -1     -2.666130     5.083964     2.862817
 C    -1      0.160635    -0.613870    -4.456494
 C    -1     -2.204084     2.682422     2.297527
 C    -1      1.368889    -0.699145    -6.649247
 C    -1      1.078600    -0.749963     8.012981
 C    -1     -3.912367     3.348279     4.010417
 C    -1      4.096275     5.739934     4.513587
 C    -1      0.137236    -0.670552    -8.726558
 C    -1     -0.153053    -0.721372     5.935668
 C    -1     -1.071957    -0.674520    -8.020341
 C    -1     -1.362245    -0.725339     6.641883
 C    -1     -1.060068    -0.679128    -6.632876
 C    -1     -1.350357    -0.729947     8.029349
 C    -1      3.165167     6.059731     3.519576
 C    -1      3.402384    -7.120008     3.396140
 C    -1      4.343399    -6.726436     4.361076
 C    -1      2.700861     5.119370    -2.782977
 C    -1      2.110884     2.623925     2.369256
 C    -1      1.357031    -0.692941    -8.036620
 C    -1      1.066742    -0.743758     6.625610
 C    -1     -2.942085    -4.798476    -2.869674
 C    -1     -4.609541    -5.345039    -4.544202
 C    -1     -2.170221    -3.754743    -2.126363
 C    -1     -2.937216     3.725594     3.076953
 C    -1      3.870541     3.392434    -4.020581
 C    -1     -3.464933    -7.109329    -3.340960
 C    -1     -3.881168    -4.398629    -3.833800
 C    -1     -4.402670    -6.709371    -4.306338
 C    -1     -4.621471     4.318642     4.707721
 C    -1      2.709128    -6.169014     2.656863
 C    -1      2.932558     3.762378    -3.047000
 C    -1      3.884594    -4.412074     3.839801
 C    -1      4.581749     4.367638    -4.708747
 C    -1      4.584505    -5.363292     4.572776
 C    -1     -3.371303     6.054036     3.564029
 C    -1     -0.151804    -0.642394     4.450130
 C    -1      2.508051     5.042888     2.841691
 C    -1      2.189718    -3.758136     2.117278
 C    -1      2.198977     2.711224    -2.278416
 C    -1      3.684416     3.382933     4.168830
 C    -1     -4.359829     5.677365     4.483531
 C    -1      3.408280     6.094680    -3.474904
 C    -1      2.775627     3.701957     3.154037
 C    -1      0.159988    -0.681392    -5.942769
 C    -1     -0.130299    -0.732211     8.719455
 C    -1      2.940180    -4.805698     2.878186
 H    -1     -3.965109     2.346919    -4.296269
 H    -1     -2.895418     7.113494    -3.321824
 H    -1     -1.700039     5.259385    -2.106673
 H    -1     -5.165295     4.201356    -5.506778
 H    -1      4.031700     2.333331    -4.217435
 H    -1      5.321091     4.097993    -5.461615
 H    -1     -1.901241     5.358455     2.137790
 H    -1     -4.024095    -3.334274    -4.012103
 H    -1     -6.085386    -0.851501     2.145915
 H    -1      8.579369    -0.851501     2.145915
 H    -1     -8.596418    -0.840911     2.126865
 H    -1      6.068338    -0.840911     2.126865
 H    -1     -8.567416    -0.791476    -2.163493
 H    -1      6.097340    -0.791476    -2.163493
 H    -1     -6.056650    -0.795373    -2.144435
 H    -1      8.608101    -0.795373    -2.144435
 H    -1     -2.007873    -0.654432    -8.576932
 H    -1     -2.298162    -0.705249     6.085296
 H    -1     -5.340832    -5.043019    -5.293227
 H    -1     -4.104603     2.287858     4.168506
 H    -1      5.065716     4.179013     5.628715
 H    -1      3.868826     2.334712     4.400867
 H    -1      5.319502    -5.065374     5.319877
 H    -1     -5.389957     4.044097     5.428973
 H    -1      1.790968     5.263606     2.053067
 H    -1      3.227144    -8.183472     3.242583
 H    -1      2.282818    -0.688392    -8.609507
 H    -1      1.992529    -0.739211     6.052722
 H    -1      1.965540     5.388770    -2.026105
 H    -1      2.304981    -0.698867    -6.092700
 H    -1      2.014692    -0.749686     8.569526
 H    -1      3.244549     7.153800    -3.280457
 H    -1     -3.176344     7.114333     3.409007
 H    -1      1.977738    -6.467094     1.906352
 H    -1      2.984404     7.107888     3.284339
 H    -1     -3.316496    -8.173909    -3.168118
 H    -1      4.053932    -3.348521     3.999347
 H    -1     -2.014358    -6.464573    -1.872439
 H    -1     -1.985897    -0.663657    -6.060216
 H    -1     -2.276184    -0.714477     8.602012
 H    -1     -2.791855     1.388795    -0.060353
 H    -1      2.795477     1.401740     0.069656
 H     0     -4.875187    -7.390907    -4.945312
 H     0      4.768505    -7.324485     4.857452
 H     0      4.554250     6.423539     4.953156
 H     0     -4.517562     6.407480    -5.018713
 H     0      4.886004     6.390707    -4.749058
 H     0     -4.904333     6.316858     4.814574
 H     0     -9.635032    -0.773507    -0.110634
 H     0      0.109714    -0.720589    -9.607080
 H     0     -0.116601    -0.737009     9.613018
 H     0      9.624920    -0.914369    -0.063516

H C O 0
6-31g(d)
****
Zr 0
LanL2DZ
****

Zr 0
LanL2DZ ecp












