285
Lattice="17.0313 0.0 0.0 0.0 17.0313 0.0 0.0 0.0 17.0313" Properties=species:S:1:pos:R:3:spacegroup_kinds:I:1 spacegroup="I -4 3 m" unit_cell=conventional occupancy="_JSON {\"0\": {\"Zn\": 1}, \"1\": {\"N\": 1}, \"2\": {\"C\": 1}, \"3\": {\"C\": 1}, \"4\": {\"H\": 1}, \"5\": {\"C\": 1}, \"6\": {\"H\": 0.5}, \"7\": {\"H\": 0.5}, \"8\": {\"H\": 0.5}, \"9\": {\"O\": 1}, \"10\": {\"O\": 1}, \"11\": {\"O\": 1}, \"12\": {\"O\": 1}, \"13\": {\"O\": 0.35}}" pbc="T T T"
Zn       8.51565000       4.25782500       0.00000000        0
Zn       8.51565000      12.77347500       0.00000000        0
Zn       0.00000000       8.51565000       4.25782500        0
Zn       0.00000000       8.51565000      12.77347500        0
Zn       4.25782500       0.00000000       8.51565000        0
Zn      12.77347500       0.00000000       8.51565000        0
Zn       4.25782500       8.51565000       0.00000000        0
Zn      12.77347500       8.51565000       0.00000000        0
Zn       8.51565000       0.00000000       4.25782500        0
Zn       8.51565000       0.00000000      12.77347500        0
Zn       0.00000000       4.25782500       8.51565000        0
Zn       0.00000000      12.77347500       8.51565000        0
N       10.05374670       5.40709712       0.52762967        1
N        6.97755330      11.62420288       0.52762967        1
N        6.97755330       5.40709712      16.50367033        1
N       10.05374670      11.62420288      16.50367033        1
N        0.52762967      10.05374670       5.40709712        1
N        0.52762967       6.97755330      11.62420288        1
N       16.50367033       6.97755330       5.40709712        1
N       16.50367033      10.05374670      11.62420288        1
N        5.40709712       0.52762967      10.05374670        1
N       11.62420288       0.52762967       6.97755330        1
N        5.40709712      16.50367033       6.97755330        1
N       11.62420288      16.50367033      10.05374670        1
N        5.40709712      10.05374670       0.52762967        1
N       11.62420288       6.97755330       0.52762967        1
N        5.40709712       6.97755330      16.50367033        1
N       11.62420288      10.05374670      16.50367033        1
N       10.05374670       0.52762967       5.40709712        1
N        6.97755330       0.52762967      11.62420288        1
N        6.97755330      16.50367033       5.40709712        1
N       10.05374670      16.50367033      11.62420288        1
N        0.52762967       5.40709712      10.05374670        1
N        0.52762967      11.62420288       6.97755330        1
N       16.50367033       5.40709712       6.97755330        1
N       16.50367033      11.62420288      10.05374670        1
N        1.53809670      13.92274712       9.04327967        1
N       15.49320330       3.10855288       9.04327967        1
N       15.49320330      13.92274712       7.98802033        1
N        1.53809670       3.10855288       7.98802033        1
N        9.04327967       1.53809670      13.92274712        1
N        9.04327967      15.49320330       3.10855288        1
N        7.98802033      15.49320330      13.92274712        1
N        7.98802033       1.53809670       3.10855288        1
N       13.92274712       9.04327967       1.53809670        1
N        3.10855288       9.04327967      15.49320330        1
N       13.92274712       7.98802033      15.49320330        1
N        3.10855288       7.98802033       1.53809670        1
N       13.92274712       1.53809670       9.04327967        1
N        3.10855288      15.49320330       9.04327967        1
N       13.92274712      15.49320330       7.98802033        1
N        3.10855288       1.53809670       7.98802033        1
N        1.53809670       9.04327967      13.92274712        1
N       15.49320330       9.04327967       3.10855288        1
N       15.49320330       7.98802033      13.92274712        1
N        1.53809670       7.98802033       3.10855288        1
N        9.04327967      13.92274712       1.53809670        1
N        9.04327967       3.10855288      15.49320330        1
N        7.98802033      13.92274712      15.49320330        1
N        7.98802033       3.10855288       1.53809670        1
C       10.60709364       6.42420636      16.89164334        2
C        6.42420636      10.60709364      16.89164334        2
C        6.42420636       6.42420636       0.13965666        2
C       10.60709364      10.60709364       0.13965666        2
C       16.89164334      10.60709364       6.42420636        2
C       16.89164334       6.42420636      10.60709364        2
C        0.13965666       6.42420636       6.42420636        2
C        0.13965666      10.60709364      10.60709364        2
C        6.42420636      16.89164334      10.60709364        2
C       10.60709364      16.89164334       6.42420636        2
C        6.42420636       0.13965666       6.42420636        2
C       10.60709364       0.13965666      10.60709364        2
C        2.09144364      14.93985636       8.37599334        2
C       14.93985636       2.09144364       8.37599334        2
C       14.93985636      14.93985636       8.65530666        2
C        2.09144364       2.09144364       8.65530666        2
C        8.37599334       2.09144364      14.93985636        2
C        8.37599334      14.93985636       2.09144364        2
C        8.65530666      14.93985636      14.93985636        2
C        8.65530666       2.09144364       2.09144364        2
C       14.93985636       8.37599334       2.09144364        2
C        2.09144364       8.37599334      14.93985636        2
C       14.93985636       8.65530666      14.93985636        2
C        2.09144364       8.65530666       2.09144364        2
C       10.75254094       5.31853436       1.70210812        3
C        6.27875906      11.71276564       1.70210812        3
C        6.27875906       5.31853436      15.32919188        3
C       10.75254094      11.71276564      15.32919188        3
C        1.70210812      10.75254094       5.31853436        3
C        1.70210812       6.27875906      11.71276564        3
C       15.32919188       6.27875906       5.31853436        3
C       15.32919188      10.75254094      11.71276564        3
C        5.31853436       1.70210812      10.75254094        3
C       11.71276564       1.70210812       6.27875906        3
C        5.31853436      15.32919188       6.27875906        3
C       11.71276564      15.32919188      10.75254094        3
C        5.31853436      10.75254094       1.70210812        3
C       11.71276564       6.27875906       1.70210812        3
C        5.31853436       6.27875906      15.32919188        3
C       11.71276564      10.75254094      15.32919188        3
C       10.75254094       1.70210812       5.31853436        3
C        6.27875906       1.70210812      11.71276564        3
C        6.27875906      15.32919188       5.31853436        3
C       10.75254094      15.32919188      11.71276564        3
C        1.70210812       5.31853436      10.75254094        3
C        1.70210812      11.71276564       6.27875906        3
C       15.32919188       5.31853436       6.27875906        3
C       15.32919188      11.71276564      10.75254094        3
C        2.23689094      13.83418436      10.21775812        3
C       14.79440906       3.19711564      10.21775812        3
C       14.79440906      13.83418436       6.81354188        3
C        2.23689094       3.19711564       6.81354188        3
C       10.21775812       2.23689094      13.83418436        3
C       10.21775812      14.79440906       3.19711564        3
C        6.81354188      14.79440906      13.83418436        3
C        6.81354188       2.23689094       3.19711564        3
C       13.83418436      10.21775812       2.23689094        3
C        3.19711564      10.21775812      14.79440906        3
C       13.83418436       6.81354188      14.79440906        3
C        3.19711564       6.81354188       2.23689094        3
C       13.83418436       2.23689094      10.21775812        3
C        3.19711564      14.79440906      10.21775812        3
C       13.83418436      14.79440906       6.81354188        3
C        3.19711564       2.23689094       6.81354188        3
C        2.23689094      10.21775812      13.83418436        3
C       14.79440906      10.21775812       3.19711564        3
C       14.79440906       6.81354188      13.83418436        3
C        2.23689094       6.81354188       3.19711564        3
C       10.21775812      13.83418436       2.23689094        3
C       10.21775812       3.19711564      14.79440906        3
C        6.81354188      13.83418436      14.79440906        3
C        6.81354188       3.19711564       2.23689094        3
H       10.59622767       4.70533944       2.38359856        4
H        6.43507233      12.32596056       2.38359856        4
H        6.43507233       4.70533944      14.64770144        4
H       10.59622767      12.32596056      14.64770144        4
H        2.38359856      10.59622767       4.70533944        4
H        2.38359856       6.43507233      12.32596056        4
H       14.64770144       6.43507233       4.70533944        4
H       14.64770144      10.59622767      12.32596056        4
H        4.70533944       2.38359856      10.59622767        4
H       12.32596056       2.38359856       6.43507233        4
H        4.70533944      14.64770144       6.43507233        4
H       12.32596056      14.64770144      10.59622767        4
H        4.70533944      10.59622767       2.38359856        4
H       12.32596056       6.43507233       2.38359856        4
H        4.70533944       6.43507233      14.64770144        4
H       12.32596056      10.59622767      14.64770144        4
H       10.59622767       2.38359856       4.70533944        4
H        6.43507233       2.38359856      12.32596056        4
H        6.43507233      14.64770144       4.70533944        4
H       10.59622767      14.64770144      12.32596056        4
H        2.38359856       4.70533944      10.59622767        4
H        2.38359856      12.32596056       6.43507233        4
H       14.64770144       4.70533944       6.43507233        4
H       14.64770144      12.32596056      10.59622767        4
H        2.08057767      13.22098944      10.89924856        4
H       14.95072233       3.81031056      10.89924856        4
H       14.95072233      13.22098944       6.13205144        4
H        2.08057767       3.81031056       6.13205144        4
H       10.89924856       2.08057767      13.22098944        4
H       10.89924856      14.95072233       3.81031056        4
H        6.13205144      14.95072233      13.22098944        4
H        6.13205144       2.08057767       3.81031056        4
H       13.22098944      10.89924856       2.08057767        4
H        3.81031056      10.89924856      14.95072233        4
H       13.22098944       6.13205144      14.95072233        4
H        3.81031056       6.13205144       2.08057767        4
H       13.22098944       2.08057767      10.89924856        4
H        3.81031056      14.95072233      10.89924856        4
H       13.22098944      14.95072233       6.13205144        4
H        3.81031056       2.08057767       6.13205144        4
H        2.08057767      10.89924856      13.22098944        4
H       14.95072233      10.89924856       3.81031056        4
H       14.95072233       6.13205144      13.22098944        4
H        2.08057767       6.13205144       3.81031056        4
H       10.89924856      13.22098944       2.08057767        4
H       10.89924856       3.81031056      14.95072233        4
H        6.13205144      13.22098944      14.95072233        4
H        6.13205144       3.81031056       2.08057767        4
C       10.11012031       6.92117969      15.57171759        5
C        6.92117969      10.11012031      15.57171759        5
C        6.92117969       6.92117969       1.45958241        5
C       10.11012031      10.11012031       1.45958241        5
C       15.57171759      10.11012031       6.92117969        5
C       15.57171759       6.92117969      10.11012031        5
C        1.45958241       6.92117969       6.92117969        5
C        1.45958241      10.11012031      10.11012031        5
C        6.92117969      15.57171759      10.11012031        5
C       10.11012031      15.57171759       6.92117969        5
C        6.92117969       1.45958241       6.92117969        5
C       10.11012031       1.45958241      10.11012031        5
C        1.59447031      15.43682969       7.05606759        5
C       15.43682969       1.59447031       7.05606759        5
C       15.43682969      15.43682969       9.97523241        5
C        1.59447031       1.59447031       9.97523241        5
C        7.05606759       1.59447031      15.43682969        5
C        7.05606759      15.43682969       1.59447031        5
C        9.97523241      15.43682969      15.43682969        5
C        9.97523241       1.59447031       1.59447031        5
C       15.43682969       7.05606759       1.59447031        5
C        1.59447031       7.05606759      15.43682969        5
C       15.43682969       9.97523241      15.43682969        5
C        1.59447031       9.97523241       1.59447031        5
H        9.23254851       7.29510189      15.67923619        6
H        7.79875149       9.73619811      15.67923619        6
H        7.79875149       7.29510189       1.35206381        6
H        9.23254851       9.73619811       1.35206381        6
H       15.67923619       9.23254851       7.29510189        6
H       15.67923619       7.79875149       9.73619811        6
H        1.35206381       7.79875149       7.29510189        6
H        1.35206381       9.23254851       9.73619811        6
H        7.29510189      15.67923619       9.23254851        6
H        9.73619811      15.67923619       7.79875149        6
H        7.29510189       1.35206381       7.79875149        6
H        9.73619811       1.35206381       9.23254851        6
H        0.71689851      15.81075189       7.16358619        6
H       16.31440149       1.22054811       7.16358619        6
H       16.31440149      15.81075189       9.86771381        6
H        0.71689851       1.22054811       9.86771381        6
H        7.16358619       0.71689851      15.81075189        6
H        7.16358619      16.31440149       1.22054811        6
H        9.86771381      16.31440149      15.81075189        6
H        9.86771381       0.71689851       1.22054811        6
H       15.81075189       7.16358619       0.71689851        6
H        1.22054811       7.16358619      16.31440149        6
H       15.81075189       9.86771381      16.31440149        6
H        1.22054811       9.86771381       0.71689851        6
H       10.07239598       6.19164396      14.94806545        7
H        6.95890402      10.83965604      14.94806545        7
H        6.95890402       6.19164396       2.08323455        7
H       10.07239598      10.83965604       2.08323455        7
H       14.94806545      10.07239598       6.19164396        7
H       14.94806545       6.95890402      10.83965604        7
H        2.08323455       6.95890402       6.19164396        7
H        2.08323455      10.07239598      10.83965604        7
H        6.19164396      14.94806545      10.07239598        7
H       10.83965604      14.94806545       6.95890402        7
H        6.19164396       2.08323455       6.95890402        7
H       10.83965604       2.08323455      10.07239598        7
H        1.55674598      14.70729396       6.43241545        7
H       15.47455402       2.32400604       6.43241545        7
H       15.47455402      14.70729396      10.59888455        7
H        1.55674598       2.32400604      10.59888455        7
H        6.43241545       1.55674598      14.70729396        7
H        6.43241545      15.47455402       2.32400604        7
H       10.59888455      15.47455402      14.70729396        7
H       10.59888455       1.55674598       2.32400604        7
H       14.70729396       6.43241545       1.55674598        7
H        2.32400604       6.43241545      15.47455402        7
H       14.70729396      10.59888455      15.47455402        7
H        2.32400604      10.59888455       1.55674598        7
H       10.70642018       7.59578949      15.23781895        8
H        6.32487982       9.43551051      15.23781895        8
H        6.32487982       7.59578949       1.79348105        8
H       10.70642018       9.43551051       1.79348105        8
H       15.23781895      10.70642018       7.59578949        8
H       15.23781895       6.32487982       9.43551051        8
H        1.79348105       6.32487982       7.59578949        8
H        1.79348105      10.70642018       9.43551051        8
H        7.59578949      15.23781895      10.70642018        8
H        9.43551051      15.23781895       6.32487982        8
H        7.59578949       1.79348105       6.32487982        8
H        9.43551051       1.79348105      10.70642018        8
H        2.19077018      16.11143949       6.72216895        8
H       14.84052982       0.91986051       6.72216895        8
H       14.84052982      16.11143949      10.30913105        8
H        2.19077018       0.91986051      10.30913105        8
H        6.72216895       2.19077018      16.11143949        8
H        6.72216895      14.84052982       0.91986051        8
H       10.30913105      14.84052982      16.11143949        8
H       10.30913105       2.19077018       0.91986051        8
H       16.11143949       6.72216895       2.19077018        8
H        0.91986051       6.72216895      14.84052982        8
H       16.11143949      10.30913105      14.84052982        8
H        0.91986051      10.30913105       2.19077018        8
H        3.41988504       4.25381684      16.03889025        0
O        3.41988504       3.41988504      16.52036100        0
H        4.31517909       3.08591594      16.40135049        0
H        0.51093900       4.25381684      13.12994421        0
O        0.51093900       3.41988504      13.61141496        0
H        1.40623305       3.08591594      13.49240445        0
H        3.41988504       1.34487080      13.12994421        0
O        3.41988504       0.51093900      13.61141496        0
H        4.31517909       0.17696990      13.49240445        0
