Molecule from CHK                       
   1.00826716642065     
    16.9373826365938953    0.0000252847446305    0.0000362155561968
     0.0000260719860331   16.9373828609717094    0.0000300098737982
     0.0000369365985727    0.0000302501366199   16.9373827327166637
   H    C    Zn   N 
   120    96    12    48
Direct
  0.3837424666224029  0.8548568810102148  0.7312686972475639
  0.6162569479886928  0.1451469401996990  0.7312592522660187
  0.6162670671752597  0.8548524498926631  0.2687399036064763
  0.3837378225302851  0.1451433274681400  0.2687342731223553
  0.7312687603128304  0.3837428842645921  0.8548569614899669
  0.7312591254322310  0.6162570920632412  0.1451470277631961
  0.2687402115081648  0.6162670883646445  0.8548522958415087
  0.2687338925270616  0.3837374342695408  0.1451430897620509
  0.8548566801728421  0.7312682644387808  0.3837430442742188
  0.1451468543007473  0.7312593908691757  0.6162567126845641
  0.8548526020093933  0.2687396841995834  0.6162674553770165
  0.1451432843678628  0.2687341766335865  0.3837373045905934
  0.8548570217420408  0.3837426202314003  0.7312688366786253
  0.1451470787022533  0.6162571451978341  0.7312590564565317
  0.8548523665365306  0.6162669434969580  0.2687401497190675
  0.1451431196093975  0.3837375485237078  0.2687338849859903
  0.3837431391509948  0.7312684929693796  0.8548568597792764
  0.6162569616342184  0.7312593252335032  0.1451469173934567
  0.6162673252220943  0.2687398675749619  0.8548524592958349
  0.3837372424753739  0.2687340441859898  0.1451431723111390
  0.7312684540197728  0.8548567636134257  0.3837427026833888
  0.7312593554044411  0.1451469312089965  0.6162568027684486
  0.2687395318379599  0.8548526370096057  0.6162674208442032
  0.2687343772066519  0.1451433825754480  0.3837377757601077
  0.8837424573669834  0.3548568279317498  0.2312686115650923
  0.1162570410481596  0.6451471465233753  0.2312590239486929
  0.1162672017343831  0.3548523832709078  0.7687399540904118
  0.8837378278752496  0.6451434762872384  0.7687344211368081
  0.2312685665324301  0.8837429298936716  0.3548568095295694
  0.2312590032819496  0.1162571834529126  0.6451471902197146
  0.7687403153019462  0.1162670919205494  0.3548521221549070
  0.7687339158091059  0.8837373581146457  0.6451431515350293
  0.3548565284591658  0.2312681490769860  0.8837430847993047
  0.6451470460573767  0.2312592053376160  0.1162568147843703
  0.3548524861549876  0.7687397684015277  0.1162674540960000
  0.6451434038264676  0.7687342790010286  0.8837372062592597
  0.3548568136864729  0.8837425453505546  0.2312686840989210
  0.6451471631917549  0.1162570961024296  0.2312589920544935
  0.3548521428118616  0.1162669396381270  0.7687403362206255
  0.6451432011753717  0.8837374717032996  0.7687339178806490
  0.8837431003960610  0.2312683409874197  0.3548566448585189
  0.1162569722347551  0.2312592538687816  0.6451470240359134
  0.1162672844831659  0.7687400971471852  0.3548522679633797
  0.8837371120563092  0.7687340899681656  0.6451432974321171
  0.2312683624270602  0.3548566669280155  0.8837425685851509
  0.2312592177935261  0.6451470041979850  0.1162567942403603
  0.7687397022194280  0.3548525178968306  0.1162675232287954
  0.7687345291470797  0.6451435217134731  0.8837377362057603
  0.3748260081842968  0.1351623631213340  0.6251662066145012
  0.6059786002523045  0.9064831311891638  0.5321546815844973
  0.6251662524482478  0.1351622935432024  0.3748258265824654
  0.3748329620251353  0.8648347041497431  0.3748331908919829
  0.5321541952427139  0.3940164194769853  0.0935144535185004
  0.6251687127809515  0.6251681850619096  0.8648373900607180
  0.4678413748877157  0.6059771302909555  0.0935182982416132
  0.3748331566504831  0.3748327763763094  0.8648346820980501
  0.0935146638157977  0.5321545346942506  0.3940162055175538
  0.8648373189865283  0.6251681834723622  0.6251685687713231
  0.0935183599783531  0.4678415104089899  0.6059770920286630
  0.8648346802737062  0.3748328142166445  0.3748334572409026
  0.1351625115668478  0.3748262768640448  0.6251658055651131
  0.9064828866756746  0.6059786493904215  0.5321549655805549
  0.1351622565876692  0.6251661195416846  0.3748256414190014
  0.9064820164799469  0.3940216832413693  0.4678452758879649
  0.3748259932172925  0.6251657622786819  0.1351623851157467
  0.6059788397044057  0.5321548179431932  0.9064831912215362
  0.6251654844482601  0.3748258591843178  0.1351624668220470
  0.3940216582139338  0.4678449553504914  0.9064815215882619
  0.5321545856058274  0.0935148262771163  0.3940162181672789
  0.6251679961147578  0.8648371731174609  0.6251681152771359
  0.4678413275962070  0.0935185405173070  0.6059773662488898
  0.4678450497768627  0.9064818045731663  0.3940217100362459
  0.8748260403236908  0.6351622752731166  0.1251662000313865
  0.1059787460809831  0.4064832892865775  0.0321547518866315
  0.1251663893729895  0.6351621443636942  0.8748256853183757
  0.8940214500608682  0.4064821215734080  0.9678451445084685
  0.0321542260127521  0.8940162874592137  0.5935142820616742
  0.1251686742024697  0.1251683866837185  0.3648375132053518
  0.8748256819265903  0.1251658319548073  0.6351622230281879
  0.9678450784294401  0.8940213592924734  0.4064818234959613
  0.6351621670031088  0.1251662042320647  0.8748257688796152
  0.4064832575221898  0.0321547682591613  0.1059790207929047
  0.5935183120838911  0.9678413915349218  0.1059773916610383
  0.4064819651242948  0.9678450219125964  0.8940217277622097
  0.6351623338825519  0.8748260308021824  0.1251659612865686
  0.3648374496889799  0.1251681709226087  0.1251688342911095
  0.5935182774187542  0.1059773236933352  0.9678412104198068
  0.3648348116113389  0.8748328574503506  0.8748331333350581
  0.8940162277629691  0.0321543899315080  0.5935143153358791
  0.1059789805224868  0.0321548760370600  0.4064832731902751
  0.1251655767149735  0.8748258894032758  0.6351623713800776
  0.8748330142249076  0.8748326307470194  0.3648348231220609
  0.0321546920790757  0.5935146793625534  0.8940162284552288
  0.1251683343200142  0.3648373555138864  0.1251681975987120
  0.9678413537644620  0.5935182905023106  0.1059773881180908
  0.8748328706161939  0.3648348311717193  0.8748331226433028
  0.3940163177992567  0.0935148650140928  0.5321545333604022
  0.5321546670699477  0.9064831046526306  0.6059785668617845
  0.6059774157739967  0.0935185699309559  0.4678412539604517
  0.3940213974020688  0.9064819133002199  0.4678451782600508
  0.6059771236709094  0.4678413019458222  0.0935186007187882
  0.5321549824133017  0.6059788456657331  0.9064829345658273
  0.3940163506047413  0.5321543458558200  0.0935144775870707
  0.4678451311289660  0.3940213812265779  0.9064816922681294
  0.0935186142190615  0.6059774955671933  0.4678411632336639
  0.9064830562352481  0.5321547692745321  0.6059789808563955
  0.0935147118851370  0.3940165166990445  0.5321543501400852
  0.9064817514643216  0.4678450450705088  0.3940215723434781
  0.8940163257203813  0.5935146151190437  0.0321545297455514
  0.0321548299696614  0.4064831485078276  0.1059788162103457
  0.1059777108490404  0.5935184238307926  0.9678411841770372
  0.9678450255186224  0.4064819423376916  0.8940215069294785
  0.1059770574003836  0.9678413188680812  0.5935183903164444
  0.0321549913932552  0.1059788819617659  0.4064831708756275
  0.9678412357157988  0.1059773815202424  0.5935183015287020
  0.8940214190146909  0.9678448870906934  0.4064815831153447
  0.5935145109678736  0.0321545383606106  0.8940160136751581
  0.4064829133115911  0.1059788218531941  0.0321550771558888
  0.5935146126694206  0.8940164446477983  0.0321544489668490
  0.4064820064318155  0.8940212766233832  0.9678451443666114
  0.3773926831670120  0.0086709835362799  0.6226077180447754
  0.6226049847557263  0.9913297799581101  0.6226049592584784
  0.6226077412391600  0.0086709667555577  0.3773926722405137
  0.3773942707774475  0.9913288824710528  0.3773943276772384
  0.6226076814702789  0.3773926763401091  0.0086710264477194
  0.6226049916689244  0.6226050029310914  0.9913298192656445
  0.3773926782151066  0.6226077079214983  0.0086710042549959
  0.3773943316637171  0.3773943158880261  0.9913288034065431
  0.0086709923195661  0.6226077450848049  0.3773926780130937
  0.9913297989918282  0.6226049651230362  0.6226050001040403
  0.0086710710929749  0.3773927265507455  0.6226077014094206
  0.9913288534720175  0.3773942928909029  0.3773943396112263
  0.8773926962324150  0.5086709869178427  0.1226077385802268
  0.1226050094375126  0.4913298094720253  0.1226049963609782
  0.1226077710674849  0.5086709636844676  0.8773926729091042
  0.8773942728592822  0.4913288976756728  0.8773942809212296
  0.1226077038921568  0.8773926685727204  0.5086710102389640
  0.1226050300905305  0.1226050054640860  0.4913298711107068
  0.8773926401342185  0.1226077281304441  0.5086709320456496
  0.8773943196321283  0.8773942714518359  0.4913288467830382
  0.5086709274142974  0.1226077528205552  0.8773926463551081
  0.4913298387448971  0.1226049860119023  0.1226050406353593
  0.5086709980258701  0.8773927013800683  0.1226077416209464
  0.4913288958678207  0.8773942697686047  0.8773942985221846
  0.3686045310074351  0.8990153519854788  0.6882752802524179
  0.6313978697835391  0.1009864935865536  0.6882691640840795
  0.6314034686495411  0.8990127328746313  0.3117316397513285
  0.3686006221160470  0.1009859665996193  0.3117289891308003
  0.6882753401989846  0.3686046563765578  0.8990153899526272
  0.6882691438126763  0.6313979053102118  0.1009865111359016
  0.3117317243137427  0.6314034968511829  0.8990127037247442
  0.3117289145799695  0.3686005860657117  0.1009859361977338
  0.8990153493466795  0.6882752597542946  0.3686046628315682
  0.1009865121834886  0.6882692782278410  0.6313977623784054
  0.8990127355319260  0.3117316347227872  0.6314035493817496
  0.1009859428513102  0.3117290254401426  0.3686005168940328
  0.8990153794967143  0.3686046215929435  0.6882753610886791
  0.1009865539315100  0.6313979299119686  0.6882691226876587
  0.8990127356571966  0.6314034580906100  0.3117316939071260
  0.1009859297653111  0.3686006079764236  0.3117289185746872
  0.3686047082575062  0.6882753371629690  0.8990153641061767
  0.6313978348672836  0.6882692367150551  0.1009864888733220
  0.6314035338440671  0.3117316787521527  0.8990127407920582
  0.3686004993675225  0.3117289880292402  0.1009859608447901
  0.6882752536995390  0.8990153485708398  0.3686045570502078
  0.6882692436784115  0.1009864915727719  0.6313977903192335
  0.3117315855348564  0.8990127485700223  0.6314035290800992
  0.3117290129531111  0.1009859657619731  0.3686006191262959
  0.8686045581790339  0.3990153586220468  0.1882752837627452
  0.1313978966364869  0.6009865829627539  0.1882691672443106
  0.1314035042275493  0.3990126995237042  0.8117316428697323
  0.8686006390590992  0.6009859767029414  0.8117290011903742
  0.1882753320876646  0.8686046589145685  0.3990153412399992
  0.1882691302102587  0.1313979375961701  0.6009865679206067
  0.8117317486240714  0.1314035087083294  0.3990126701038383
  0.8117289307432619  0.8686005535867667  0.6009859508241759
  0.3990153145599349  0.1882752331993954  0.8686046494424379
  0.6009865240856935  0.1882692168750029  0.1313978057276421
  0.3990127176260689  0.8117316548658620  0.1314035593868934
  0.6009859850575053  0.8117290526513953  0.8686004818660209
  0.3990153329590682  0.8686045772120674  0.1882753255969435
  0.6009865387916649  0.1313979132325662  0.1882691215648310
  0.3990126834142531  0.1314034901706740  0.8117317365581826
  0.6009859506272144  0.8686005928165484  0.8117289014919234
  0.8686046781856515  0.1882752896590836  0.3990153258264652
  0.1313978499805104  0.1882692303272957  0.6009865400387545
  0.1314035411143133  0.8117317125661010  0.3990126790565914
  0.8686004779474996  0.8117289990251286  0.6009859714741110
  0.1882752542388646  0.3990153106340893  0.8686045454589894
  0.1882692583478865  0.6009865574574333  0.1313977903912291
  0.8117316259782575  0.3990127363803003  0.1314035503982318
  0.8117290484233217  0.6009859895670564  0.8686005859166342
  0.4049179621135753  0.0867755973468470  0.5950782822512360
  0.5950784672036791  0.9132244250840477  0.5950784760769071
  0.5950783207411708  0.0867755762201392  0.4049178973797861
  0.4049212385175747  0.9132234630461162  0.4049213688672186
  0.5950780409911220  0.4049179377667880  0.0867755288416003
  0.5950787018597362  0.5950785910133797  0.9132244541030273
  0.4049179643869440  0.5950781453618931  0.0867754411112395
  0.4049213349584124  0.4049211748045198  0.9132233748803015
  0.0867755288385650  0.5950783083809512  0.4049178291272370
  0.9132244136268742  0.5950785277588532  0.5950787090270658
  0.0867755414167794  0.4049180814549634  0.5950781386069195
  0.9132234566111123  0.4049212709121858  0.4049214147822011
  0.9049179738808836  0.5867755004865455  0.0950782868920215
  0.0950785932130298  0.4132244900489933  0.0950785604576733
  0.0950784344879854  0.5867754985327448  0.9049178528061091
  0.9049212229601702  0.4132235294649944  0.9049213132761877
  0.0950780544877636  0.9049179250059441  0.5867754639127656
  0.0950787228968183  0.0950786284155476  0.4132245018126989
  0.9049178699071725  0.0950781913846974  0.5867754337274702
  0.9049212731495221  0.9049211380286410  0.4132233844609938
  0.5867754432650275  0.0950782842899894  0.9049178323800710
  0.4132244305804026  0.0950785470245045  0.0950787829279525
  0.5867755145959186  0.9049180088681793  0.0950782370550340
  0.4132234886640700  0.9049211997611960  0.9049213547210074
  0.5000005128950020  0.0000011557559433  0.7500010813569631
  0.5000011753552288  0.0000005933841987  0.2500005713434355
  0.7500009823758687  0.5000006390069694  0.0000012302005470
  0.2500004983330246  0.5000011550491869  0.0000005377625312
  0.0000011782211113  0.7500010709274124  0.5000005705277299
  0.0000005633336345  0.2500004570288181  0.5000012466762453
  0.0000013609827876  0.5000005718474915  0.7500011360109354
  0.0000006286972572  0.5000011507865146  0.2500005533081143
  0.5000005355757006  0.7500010780331818  0.0000012236047109
  0.5000010785027380  0.2500005179250566  0.0000006167194589
  0.7500010979776899  0.0000010417780036  0.5000004643976388
  0.2500004351394814  0.0000005573851680  0.5000013164467000
  0.4098068373095970  0.9684110461526755  0.6826181929794153
  0.5901911969937156  0.0315921540443395  0.6826135314968204
  0.5901966499011763  0.9684075440410777  0.3173835916406836
  0.4098078220181371  0.0315915025275530  0.3173853621531175
  0.6826182279206995  0.4098068933426010  0.9684111235115312
  0.6826135305627405  0.5901912236140339  0.0315922066885590
  0.3173835820039373  0.5901966194563325  0.9684075090487301
  0.3173853451366822  0.4098078369580377  0.0315914757031469
  0.9684110711056950  0.6826182449691560  0.4098068765014821
  0.0315921518454326  0.6826135673804731  0.5901911830238932
  0.9684075690655778  0.3173835811411483  0.5901966490797511
  0.0315915079385532  0.3173853600183207  0.4098078488477055
  0.9684111175862100  0.4098069058589817  0.6826182506104906
  0.0315922295839682  0.5901912123403430  0.6826135536048178
  0.9684075554526803  0.5901966493711975  0.3173835694957513
  0.0315914903020266  0.4098078348005120  0.3173853533583091
  0.4098068863501182  0.6826182629829083  0.9684111062124722
  0.5901912027918630  0.6826135961872004  0.0315921704526267
  0.5901966112515092  0.3173835566989198  0.9684075451929750
  0.4098078102639610  0.3173853569441967  0.0315915090594199
  0.6826182241033583  0.9684110546948028  0.4098068105226162
  0.6826135842789710  0.0315921450284631  0.5901911521713481
  0.3173835610178599  0.9684075487051876  0.5901966761245329
  0.3173853367430027  0.0315915153153060  0.4098078760938941
  0.9098068642913123  0.4684110518164259  0.1826181958383528
  0.0901912505817464  0.5315922127042364  0.1826135428572457
  0.0901967106655558  0.4684075064542699  0.8173836005724294
  0.9098078317724095  0.5315915243783992  0.8173853524340124
  0.1826182240055136  0.9098068506060024  0.4684110910523981
  0.1826135245388028  0.0901912593904895  0.5315922703243915
  0.8173836046950622  0.0901966492543283  0.4684074587415947
  0.8173853775538535  0.9098077725864715  0.5315914996249449
  0.4684110154943474  0.1826182137181803  0.9098068483920393
  0.5315921902484722  0.1826135385067480  0.0901912350681270
  0.4684075328067880  0.8173836185020706  0.0901966860956581
  0.5315915663043316  0.8173853900998201  0.9098078051545316
  0.4684110498757693  0.9098068548191077  0.1826182374282806
  0.5315922160872940  0.0901912465810902  0.1826135423847394
  0.4684074756776365  0.0901966816736894  0.8173835944116197
  0.5315915059377835  0.9098077806454353  0.8173853349382652
  0.9098068434003175  0.1826182248085461  0.4684110403243338
  0.0901912507391078  0.1826135497750758  0.5315922230033829
  0.0901966536775662  0.8173835977867234  0.4684074880674895
  0.9098077835576859  0.8173853633670846  0.5315915385970420
  0.1826182341710893  0.4684110082414418  0.9098068184041672
  0.1826135688480545  0.5315921878727858  0.0901911957121242
  0.8173835863907943  0.4684075301691121  0.0901966866741701
  0.8173853536466221  0.5315915381680466  0.9098078134823971
 
  0.00000000E+00  0.00000000E+00  0.00000000E+00
  0.00000000E+00  0.00000000E+00  0.00000000E+00
  0.00000000E+00  0.00000000E+00  0.00000000E+00
  0.00000000E+00  0.00000000E+00  0.00000000E+00
  0.00000000E+00  0.00000000E+00  0.00000000E+00
  0.00000000E+00  0.00000000E+00  0.00000000E+00
  0.00000000E+00  0.00000000E+00  0.00000000E+00
  0.00000000E+00  0.00000000E+00  0.00000000E+00
  0.00000000E+00  0.00000000E+00  0.00000000E+00
  0.00000000E+00  0.00000000E+00  0.00000000E+00
  0.00000000E+00  0.00000000E+00  0.00000000E+00
  0.00000000E+00  0.00000000E+00  0.00000000E+00
  0.00000000E+00  0.00000000E+00  0.00000000E+00
  0.00000000E+00  0.00000000E+00  0.00000000E+00
  0.00000000E+00  0.00000000E+00  0.00000000E+00
  0.00000000E+00  0.00000000E+00  0.00000000E+00
  0.00000000E+00  0.00000000E+00  0.00000000E+00
  0.00000000E+00  0.00000000E+00  0.00000000E+00
  0.00000000E+00  0.00000000E+00  0.00000000E+00
  0.00000000E+00  0.00000000E+00  0.00000000E+00
  0.00000000E+00  0.00000000E+00  0.00000000E+00
  0.00000000E+00  0.00000000E+00  0.00000000E+00
  0.00000000E+00  0.00000000E+00  0.00000000E+00
  0.00000000E+00  0.00000000E+00  0.00000000E+00
  0.00000000E+00  0.00000000E+00  0.00000000E+00
  0.00000000E+00  0.00000000E+00  0.00000000E+00
  0.00000000E+00  0.00000000E+00  0.00000000E+00
  0.00000000E+00  0.00000000E+00  0.00000000E+00
  0.00000000E+00  0.00000000E+00  0.00000000E+00
  0.00000000E+00  0.00000000E+00  0.00000000E+00
  0.00000000E+00  0.00000000E+00  0.00000000E+00
  0.00000000E+00  0.00000000E+00  0.00000000E+00
  0.00000000E+00  0.00000000E+00  0.00000000E+00
  0.00000000E+00  0.00000000E+00  0.00000000E+00
  0.00000000E+00  0.00000000E+00  0.00000000E+00
  0.00000000E+00  0.00000000E+00  0.00000000E+00
  0.00000000E+00  0.00000000E+00  0.00000000E+00
  0.00000000E+00  0.00000000E+00  0.00000000E+00
  0.00000000E+00  0.00000000E+00  0.00000000E+00
  0.00000000E+00  0.00000000E+00  0.00000000E+00
  0.00000000E+00  0.00000000E+00  0.00000000E+00
  0.00000000E+00  0.00000000E+00  0.00000000E+00
  0.00000000E+00  0.00000000E+00  0.00000000E+00
  0.00000000E+00  0.00000000E+00  0.00000000E+00
  0.00000000E+00  0.00000000E+00  0.00000000E+00
  0.00000000E+00  0.00000000E+00  0.00000000E+00
  0.00000000E+00  0.00000000E+00  0.00000000E+00
  0.00000000E+00  0.00000000E+00  0.00000000E+00
  0.00000000E+00  0.00000000E+00  0.00000000E+00
  0.00000000E+00  0.00000000E+00  0.00000000E+00
  0.00000000E+00  0.00000000E+00  0.00000000E+00
  0.00000000E+00  0.00000000E+00  0.00000000E+00
  0.00000000E+00  0.00000000E+00  0.00000000E+00
  0.00000000E+00  0.00000000E+00  0.00000000E+00
  0.00000000E+00  0.00000000E+00  0.00000000E+00
  0.00000000E+00  0.00000000E+00  0.00000000E+00
  0.00000000E+00  0.00000000E+00  0.00000000E+00
  0.00000000E+00  0.00000000E+00  0.00000000E+00
  0.00000000E+00  0.00000000E+00  0.00000000E+00
  0.00000000E+00  0.00000000E+00  0.00000000E+00
  0.00000000E+00  0.00000000E+00  0.00000000E+00
  0.00000000E+00  0.00000000E+00  0.00000000E+00
  0.00000000E+00  0.00000000E+00  0.00000000E+00
  0.00000000E+00  0.00000000E+00  0.00000000E+00
  0.00000000E+00  0.00000000E+00  0.00000000E+00
  0.00000000E+00  0.00000000E+00  0.00000000E+00
  0.00000000E+00  0.00000000E+00  0.00000000E+00
  0.00000000E+00  0.00000000E+00  0.00000000E+00
  0.00000000E+00  0.00000000E+00  0.00000000E+00
  0.00000000E+00  0.00000000E+00  0.00000000E+00
  0.00000000E+00  0.00000000E+00  0.00000000E+00
  0.00000000E+00  0.00000000E+00  0.00000000E+00
  0.00000000E+00  0.00000000E+00  0.00000000E+00
  0.00000000E+00  0.00000000E+00  0.00000000E+00
  0.00000000E+00  0.00000000E+00  0.00000000E+00
  0.00000000E+00  0.00000000E+00  0.00000000E+00
  0.00000000E+00  0.00000000E+00  0.00000000E+00
  0.00000000E+00  0.00000000E+00  0.00000000E+00
  0.00000000E+00  0.00000000E+00  0.00000000E+00
  0.00000000E+00  0.00000000E+00  0.00000000E+00
  0.00000000E+00  0.00000000E+00  0.00000000E+00
  0.00000000E+00  0.00000000E+00  0.00000000E+00
  0.00000000E+00  0.00000000E+00  0.00000000E+00
  0.00000000E+00  0.00000000E+00  0.00000000E+00
  0.00000000E+00  0.00000000E+00  0.00000000E+00
  0.00000000E+00  0.00000000E+00  0.00000000E+00
  0.00000000E+00  0.00000000E+00  0.00000000E+00
  0.00000000E+00  0.00000000E+00  0.00000000E+00
  0.00000000E+00  0.00000000E+00  0.00000000E+00
  0.00000000E+00  0.00000000E+00  0.00000000E+00
  0.00000000E+00  0.00000000E+00  0.00000000E+00
  0.00000000E+00  0.00000000E+00  0.00000000E+00
  0.00000000E+00  0.00000000E+00  0.00000000E+00
  0.00000000E+00  0.00000000E+00  0.00000000E+00
  0.00000000E+00  0.00000000E+00  0.00000000E+00
  0.00000000E+00  0.00000000E+00  0.00000000E+00
  0.00000000E+00  0.00000000E+00  0.00000000E+00
  0.00000000E+00  0.00000000E+00  0.00000000E+00
  0.00000000E+00  0.00000000E+00  0.00000000E+00
  0.00000000E+00  0.00000000E+00  0.00000000E+00
  0.00000000E+00  0.00000000E+00  0.00000000E+00
  0.00000000E+00  0.00000000E+00  0.00000000E+00
  0.00000000E+00  0.00000000E+00  0.00000000E+00
  0.00000000E+00  0.00000000E+00  0.00000000E+00
  0.00000000E+00  0.00000000E+00  0.00000000E+00
  0.00000000E+00  0.00000000E+00  0.00000000E+00
  0.00000000E+00  0.00000000E+00  0.00000000E+00
  0.00000000E+00  0.00000000E+00  0.00000000E+00
  0.00000000E+00  0.00000000E+00  0.00000000E+00
  0.00000000E+00  0.00000000E+00  0.00000000E+00
  0.00000000E+00  0.00000000E+00  0.00000000E+00
  0.00000000E+00  0.00000000E+00  0.00000000E+00
  0.00000000E+00  0.00000000E+00  0.00000000E+00
  0.00000000E+00  0.00000000E+00  0.00000000E+00
  0.00000000E+00  0.00000000E+00  0.00000000E+00
  0.00000000E+00  0.00000000E+00  0.00000000E+00
  0.00000000E+00  0.00000000E+00  0.00000000E+00
  0.00000000E+00  0.00000000E+00  0.00000000E+00
  0.00000000E+00  0.00000000E+00  0.00000000E+00
  0.00000000E+00  0.00000000E+00  0.00000000E+00
  0.00000000E+00  0.00000000E+00  0.00000000E+00
  0.00000000E+00  0.00000000E+00  0.00000000E+00
  0.00000000E+00  0.00000000E+00  0.00000000E+00
  0.00000000E+00  0.00000000E+00  0.00000000E+00
  0.00000000E+00  0.00000000E+00  0.00000000E+00
  0.00000000E+00  0.00000000E+00  0.00000000E+00
  0.00000000E+00  0.00000000E+00  0.00000000E+00
  0.00000000E+00  0.00000000E+00  0.00000000E+00
  0.00000000E+00  0.00000000E+00  0.00000000E+00
  0.00000000E+00  0.00000000E+00  0.00000000E+00
  0.00000000E+00  0.00000000E+00  0.00000000E+00
  0.00000000E+00  0.00000000E+00  0.00000000E+00
  0.00000000E+00  0.00000000E+00  0.00000000E+00
  0.00000000E+00  0.00000000E+00  0.00000000E+00
  0.00000000E+00  0.00000000E+00  0.00000000E+00
  0.00000000E+00  0.00000000E+00  0.00000000E+00
  0.00000000E+00  0.00000000E+00  0.00000000E+00
  0.00000000E+00  0.00000000E+00  0.00000000E+00
  0.00000000E+00  0.00000000E+00  0.00000000E+00
  0.00000000E+00  0.00000000E+00  0.00000000E+00
  0.00000000E+00  0.00000000E+00  0.00000000E+00
  0.00000000E+00  0.00000000E+00  0.00000000E+00
  0.00000000E+00  0.00000000E+00  0.00000000E+00
  0.00000000E+00  0.00000000E+00  0.00000000E+00
  0.00000000E+00  0.00000000E+00  0.00000000E+00
  0.00000000E+00  0.00000000E+00  0.00000000E+00
  0.00000000E+00  0.00000000E+00  0.00000000E+00
  0.00000000E+00  0.00000000E+00  0.00000000E+00
  0.00000000E+00  0.00000000E+00  0.00000000E+00
  0.00000000E+00  0.00000000E+00  0.00000000E+00
  0.00000000E+00  0.00000000E+00  0.00000000E+00
  0.00000000E+00  0.00000000E+00  0.00000000E+00
  0.00000000E+00  0.00000000E+00  0.00000000E+00
  0.00000000E+00  0.00000000E+00  0.00000000E+00
  0.00000000E+00  0.00000000E+00  0.00000000E+00
  0.00000000E+00  0.00000000E+00  0.00000000E+00
  0.00000000E+00  0.00000000E+00  0.00000000E+00
  0.00000000E+00  0.00000000E+00  0.00000000E+00
  0.00000000E+00  0.00000000E+00  0.00000000E+00
  0.00000000E+00  0.00000000E+00  0.00000000E+00
  0.00000000E+00  0.00000000E+00  0.00000000E+00
  0.00000000E+00  0.00000000E+00  0.00000000E+00
  0.00000000E+00  0.00000000E+00  0.00000000E+00
  0.00000000E+00  0.00000000E+00  0.00000000E+00
  0.00000000E+00  0.00000000E+00  0.00000000E+00
  0.00000000E+00  0.00000000E+00  0.00000000E+00
  0.00000000E+00  0.00000000E+00  0.00000000E+00
  0.00000000E+00  0.00000000E+00  0.00000000E+00
  0.00000000E+00  0.00000000E+00  0.00000000E+00
  0.00000000E+00  0.00000000E+00  0.00000000E+00
  0.00000000E+00  0.00000000E+00  0.00000000E+00
  0.00000000E+00  0.00000000E+00  0.00000000E+00
  0.00000000E+00  0.00000000E+00  0.00000000E+00
  0.00000000E+00  0.00000000E+00  0.00000000E+00
  0.00000000E+00  0.00000000E+00  0.00000000E+00
  0.00000000E+00  0.00000000E+00  0.00000000E+00
  0.00000000E+00  0.00000000E+00  0.00000000E+00
  0.00000000E+00  0.00000000E+00  0.00000000E+00
  0.00000000E+00  0.00000000E+00  0.00000000E+00
  0.00000000E+00  0.00000000E+00  0.00000000E+00
  0.00000000E+00  0.00000000E+00  0.00000000E+00
  0.00000000E+00  0.00000000E+00  0.00000000E+00
  0.00000000E+00  0.00000000E+00  0.00000000E+00
  0.00000000E+00  0.00000000E+00  0.00000000E+00
  0.00000000E+00  0.00000000E+00  0.00000000E+00
  0.00000000E+00  0.00000000E+00  0.00000000E+00
  0.00000000E+00  0.00000000E+00  0.00000000E+00
  0.00000000E+00  0.00000000E+00  0.00000000E+00
  0.00000000E+00  0.00000000E+00  0.00000000E+00
  0.00000000E+00  0.00000000E+00  0.00000000E+00
  0.00000000E+00  0.00000000E+00  0.00000000E+00
  0.00000000E+00  0.00000000E+00  0.00000000E+00
  0.00000000E+00  0.00000000E+00  0.00000000E+00
  0.00000000E+00  0.00000000E+00  0.00000000E+00
  0.00000000E+00  0.00000000E+00  0.00000000E+00
  0.00000000E+00  0.00000000E+00  0.00000000E+00
  0.00000000E+00  0.00000000E+00  0.00000000E+00
  0.00000000E+00  0.00000000E+00  0.00000000E+00
  0.00000000E+00  0.00000000E+00  0.00000000E+00
  0.00000000E+00  0.00000000E+00  0.00000000E+00
  0.00000000E+00  0.00000000E+00  0.00000000E+00
  0.00000000E+00  0.00000000E+00  0.00000000E+00
  0.00000000E+00  0.00000000E+00  0.00000000E+00
  0.00000000E+00  0.00000000E+00  0.00000000E+00
  0.00000000E+00  0.00000000E+00  0.00000000E+00
  0.00000000E+00  0.00000000E+00  0.00000000E+00
  0.00000000E+00  0.00000000E+00  0.00000000E+00
  0.00000000E+00  0.00000000E+00  0.00000000E+00
  0.00000000E+00  0.00000000E+00  0.00000000E+00
  0.00000000E+00  0.00000000E+00  0.00000000E+00
  0.00000000E+00  0.00000000E+00  0.00000000E+00
  0.00000000E+00  0.00000000E+00  0.00000000E+00
  0.00000000E+00  0.00000000E+00  0.00000000E+00
  0.00000000E+00  0.00000000E+00  0.00000000E+00
  0.00000000E+00  0.00000000E+00  0.00000000E+00
  0.00000000E+00  0.00000000E+00  0.00000000E+00
  0.00000000E+00  0.00000000E+00  0.00000000E+00
  0.00000000E+00  0.00000000E+00  0.00000000E+00
  0.00000000E+00  0.00000000E+00  0.00000000E+00
  0.00000000E+00  0.00000000E+00  0.00000000E+00
  0.00000000E+00  0.00000000E+00  0.00000000E+00
  0.00000000E+00  0.00000000E+00  0.00000000E+00
  0.00000000E+00  0.00000000E+00  0.00000000E+00
  0.00000000E+00  0.00000000E+00  0.00000000E+00
  0.00000000E+00  0.00000000E+00  0.00000000E+00
  0.00000000E+00  0.00000000E+00  0.00000000E+00
  0.00000000E+00  0.00000000E+00  0.00000000E+00
  0.00000000E+00  0.00000000E+00  0.00000000E+00
  0.00000000E+00  0.00000000E+00  0.00000000E+00
  0.00000000E+00  0.00000000E+00  0.00000000E+00
  0.00000000E+00  0.00000000E+00  0.00000000E+00
  0.00000000E+00  0.00000000E+00  0.00000000E+00
  0.00000000E+00  0.00000000E+00  0.00000000E+00
  0.00000000E+00  0.00000000E+00  0.00000000E+00
  0.00000000E+00  0.00000000E+00  0.00000000E+00
  0.00000000E+00  0.00000000E+00  0.00000000E+00
  0.00000000E+00  0.00000000E+00  0.00000000E+00
  0.00000000E+00  0.00000000E+00  0.00000000E+00
  0.00000000E+00  0.00000000E+00  0.00000000E+00
  0.00000000E+00  0.00000000E+00  0.00000000E+00
  0.00000000E+00  0.00000000E+00  0.00000000E+00
  0.00000000E+00  0.00000000E+00  0.00000000E+00
  0.00000000E+00  0.00000000E+00  0.00000000E+00
  0.00000000E+00  0.00000000E+00  0.00000000E+00
  0.00000000E+00  0.00000000E+00  0.00000000E+00
  0.00000000E+00  0.00000000E+00  0.00000000E+00
  0.00000000E+00  0.00000000E+00  0.00000000E+00
  0.00000000E+00  0.00000000E+00  0.00000000E+00
  0.00000000E+00  0.00000000E+00  0.00000000E+00
  0.00000000E+00  0.00000000E+00  0.00000000E+00
  0.00000000E+00  0.00000000E+00  0.00000000E+00
  0.00000000E+00  0.00000000E+00  0.00000000E+00
  0.00000000E+00  0.00000000E+00  0.00000000E+00
  0.00000000E+00  0.00000000E+00  0.00000000E+00
  0.00000000E+00  0.00000000E+00  0.00000000E+00
  0.00000000E+00  0.00000000E+00  0.00000000E+00
  0.00000000E+00  0.00000000E+00  0.00000000E+00
  0.00000000E+00  0.00000000E+00  0.00000000E+00
  0.00000000E+00  0.00000000E+00  0.00000000E+00
  0.00000000E+00  0.00000000E+00  0.00000000E+00
  0.00000000E+00  0.00000000E+00  0.00000000E+00
  0.00000000E+00  0.00000000E+00  0.00000000E+00