279
Lattice="17.077406000000003 0.0 0.0 5.215997453110003e-05 17.07740799992035 0.0 7.272590734300007e-05 6.13995193216e-05 17.077407999734778" Properties=species:S:1:pos:R:3 i=57 E=-1809.3741903892 pbc="T T T"
Zn       8.53848668       4.19129653      -0.00342966
Zn       8.53922905      12.87793693       0.04187542
Zn      -0.00044240       8.53871762       4.19592532
Zn       0.00012379       8.53927041      12.88193299
Zn       4.19326618       0.00038381       8.54051128
Zn      12.88282760       0.00057836       8.53948435
Zn       4.34254295       8.53774217       0.00036909
Zn      12.73498530       8.53816986      -0.00007189
Zn       8.53880470       0.00410885       4.34664416
Zn       8.53853062      -0.04328719      12.74056623
Zn       0.00054779       4.34258596       8.53882067
Zn       0.00046793      12.73499001       8.53846168
N       10.02193537       5.38879130       0.72193210
N        7.05813261      11.67246675       0.76128805
N        7.05243713       5.38738821      16.34253355
N       10.01854834      11.68303444      16.37152031
N        0.72968382      10.02268998       5.39171017
N        0.73211936       7.05824963      11.68308577
N       16.34518785       7.05823523       5.39502175
N       16.34731295      10.02284255      11.68527963
N        5.39132500       0.73005955      10.03286777
N       11.68384374       0.73287713       7.05978448
N        5.40605339      16.34480889       7.07415747
N       11.68602297      16.34254291      10.02173045
N        5.52019586      10.01905980       0.75464585
N       11.55752371       7.04568356       0.73869363
N        5.51288270       7.04058652      16.33202704
N       11.55317007      10.02684247      16.34355819
N       10.02543433       0.74985099       5.52693747
N        7.03855414       0.72168406      11.58048888
N        7.05489575      16.33663484       5.53097055
N       10.02231691      16.31310560      11.54848445
N        0.74430321       5.52177399      10.02762986
N        0.74282545      11.55720120       7.04879239
N       16.33401780       5.52432176       7.05244526
N       16.33425145      11.55844612      10.02872603
N        1.48329217      13.93255015       9.26839358
N       15.59309208       3.14781426       9.26687874
N       15.59656371      13.93359314       7.80593238
N        1.48523720       3.14753339       7.80664403
N        9.26175063       1.44593516      13.94441979
N        9.28133262      15.60089149       3.16187367
N        7.80979941      15.55263351      13.93774417
N        7.80728559       1.48456824       3.14703411
N       13.93173859       9.26867095       1.48341116
N        3.14795455       9.26608703      15.59360671
N       13.93396474       7.80583989      15.59641970
N        3.14477306       7.80527988       1.48292780
N       14.05620741       1.49312351       9.28011657
N        3.01717479      15.58989831       9.28548611
N       14.06092920      15.58996160       7.79569025
N        3.02250463       1.49280224       7.79737391
N        1.49213549       9.28111853      14.05785493
N       15.58632776       9.28106107       3.02049000
N       15.59287970       7.79366300      14.06372413
N        1.48836158       7.79408728       3.01854845
N        9.28927590      14.04560882       1.52605758
N        9.27146942       3.00217038      15.58310091
N        7.79369252      14.05154081      15.62604134
N        7.79587380       3.02088323       1.49193668
C       10.61874327       6.38371734      17.07041931
C        6.46554641      10.68444636      17.09749222
C        6.45804682       6.38222107      -0.00410665
C       10.61842641      10.68727565       0.01872830
C       17.07626087      10.61707124       6.38659727
C       17.07703278       6.46001301      10.69183359
C       -0.00018937       6.46419502       6.38912914
C        0.00054095      10.61769609      10.69043694
C        6.37339141      17.06555144      10.63435937
C       10.68713882      17.08165655       6.46627382
C        6.39424296       0.00178435       6.47324772
C       10.68587798      -0.01153689      10.61577385
C        2.08367938      14.92295974       8.53679454
C       14.99776055       2.15353803       8.53614476
C       15.00311968      14.92827875       8.53778340
C        2.07409698       2.14917251       8.53729388
C        8.53247820       2.04484242      14.93855795
C        8.54632162      14.99160516       2.18022990
C        8.54073545      14.97330241      14.94198144
C        8.53906737       2.07905443       2.15285682
C       14.92431722       8.53694353       2.08036870
C        2.15139384       8.53697057      14.99986181
C       14.92631991       8.53849902      15.00017827
C        2.15032819       8.53685651       2.07720342
C       10.60266682       5.43110428       2.00631740
C        6.46900663      11.62139393       2.04143580
C        6.46346091       5.42475311      15.06216868
C       10.59187862      11.64335660      15.08381865
C        2.01263330      10.60630262       5.43407763
C        2.01733808       6.48013972      11.63550983
C       15.06215055       6.47492162       5.43878249
C       15.06435215      10.60660663      11.64324494
C        5.44597830       2.01228698      10.61621050
C       11.64367133       2.01618709       6.47718891
C        5.45132009      15.06080632       6.49313924
C       11.64697046      15.05602181      10.59737161
C        5.52253034      10.60478363       2.03752695
C       11.54755904       6.44915315       2.01636414
C        5.51589128       6.44146385      15.05547371
C       11.53662888      10.62523416      15.06682935
C       10.62415652       2.02655775       5.53369431
C        6.45973950       2.00708242      11.56930696
C        6.46506536      15.05581165       5.54371797
C       10.62424621      15.03759578      11.53690113
C        2.02447085       5.53451479      10.61784657
C        2.02076151      11.55055599       6.45280674
C       15.05551202       5.53066753       6.45758083
C       15.05638631      11.55140090      10.62499818
C        2.05555276      13.98263372      10.55635918
C       15.00924557       3.10705837      10.54965223
C       15.01189058      13.97675879       6.52343876
C        2.07955938       3.11323300       6.52828397
C       10.53899586       2.04380724      13.96973294
C       10.56638579      15.02221930       3.11903307
C        6.52168924      14.98124488      13.99996336
C        6.52522635       2.07023647       3.10655291
C       13.97498218      10.55234747       2.06555338
C        3.11044370      10.54794121      15.00712173
C       13.98387256       6.51995318      15.01956263
C        3.10259939       6.52300696       2.06818812
C       14.06321612       2.09019260      10.55778329
C        2.99909770      15.00149219      10.56716497
C       14.06674889      14.99468905       6.51726912
C        3.02519337       2.09597454       6.52222166
C        2.09257833      10.55704766      14.06199253
C       14.99193763      10.55982207       3.01166533
C       15.00353193       6.51249496      14.07631934
C        2.08424131       6.51609637       3.01293462
C       10.57146551      14.06492948       2.11256001
C       10.54488235       3.00054784      14.97669483
C        6.51229179      14.05748881      15.03684413
C        6.51819983       3.01563628       2.08890805
H       10.29636213       4.74383725       2.79227835
H        6.77091650      12.30268838       2.83443251
H        6.77287426       4.74035295      14.27452628
H       10.28120240      12.33184285      14.30075034
H        2.79935001      10.30228812       4.74659730
H        2.80625176       6.79131454      12.31747246
H       14.27453598       6.77945081       4.75250794
H       14.27782974      10.30252851      12.33097232
H        4.78014870       2.81119535      10.29485697
H       12.33333436       2.80088333       6.78135340
H        4.76908235      14.27168065       6.80273493
H       12.33964159      14.27460393      10.29169771
H        4.86068558      10.25115097       2.82556298
H       12.20328071       6.79792006       2.81176844
H        4.85803468       6.79109076      14.26204484
H       12.18861720      10.27825941      14.26747549
H       10.27644924       2.82133494       4.87657161
H        6.82630497       2.80011085      12.21867095
H        6.81466825      14.26206753       4.88651408
H       10.27594119      14.23874086      12.18869317
H        2.81832536       4.87836907      10.26628950
H        2.81441546      12.20816833       6.80189086
H       14.26207700       4.87358540       6.80827145
H       14.26259533      12.20910744      10.27635072
H        1.74230259      13.30202081      11.34540109
H       15.31718085       3.79162202      11.33727112
H       15.31608585      13.29058739       5.73559448
H        1.78059459       3.80412901       5.74260422
H       11.32419214       1.73901656      13.28087866
H       11.35588523      15.33897439       3.79744098
H        5.73024381      15.28234975      13.31670634
H        5.73815092       1.76583437       3.79349849
H       13.28998217      11.34004647       1.75860888
H        3.79974188      11.33333273      15.31036527
H       13.30104378       5.73077229      15.32787364
H        3.79020250       5.73589976       1.76530234
H       13.40674170       1.74132268      11.35250214
H        3.64300062      15.35951061      11.36797482
H       13.40881346      15.34455310       5.72417946
H        3.68846360       1.75168293       5.73116197
H        1.74628527      11.35110084      13.40343302
H       15.34096994      11.35381001       3.66894506
H       15.35818438       5.71674484      13.42412177
H        1.73480692       5.72275410       3.67078173
H       11.36546702      13.40630706       1.76625200
H       11.33533807       3.66956696      15.31114856
H        5.71438416      13.41517938      15.40424363
H        5.72446666       3.67349594       1.74045354
C       10.22678285       6.76367026      15.64947167
C        6.86668965      10.31170968      15.67712100
C        6.85700640       6.76517244       1.41410847
C       10.23345750      10.30320371       1.44061722
C       15.65599206      10.22279236       6.76687314
C       15.65473124       6.85120397      10.31621584
C        1.41912733       6.86195471       6.76927079
C        1.42079893      10.22367371      10.31007425
C        6.73994178      15.64133649      10.24249166
C       10.30593762      15.66169708       6.86111061
C        6.77217252       1.42277213       6.86714802
C       10.30209761       1.40942035      10.22740616
C        1.69600685      15.29970451       7.11380126
C       15.39434942       1.77161563       7.11695370
C       15.40088504      15.30822433       9.95715772
C        1.66610829       1.76188540       9.95117771
C        7.12153132       1.63834864      15.33833942
C        7.12328662      15.37855517       1.80258254
C        9.96450985      15.36709924      15.30929836
C        9.95828146       1.68194533       1.77173241
C       15.30323976       7.11609613       1.68720940
C        1.76525403       7.11923913      15.39795258
C       15.30175438       9.96052081      15.39246068
C        1.77007170       9.95668202       1.68124870
H        9.39811823       7.49792584      15.65152758
H        7.70305330       9.58630746      15.68193361
H        7.69109909       7.49295442       1.40549182
H        9.40771291       9.56567241       1.43949654
H       15.65994317       9.39182729       7.49843825
H       15.65503826       7.68407361       9.58677222
H        1.41316668       7.70027451       7.49232873
H        1.41679961       9.39549282       9.57536507
H        7.47242522      15.63985444       9.41258496
H        9.57043761      15.66634602       7.68865354
H        7.50074955       1.41992069       7.70084225
H        9.57718080       1.40745688       9.39054139
H        0.86728520      16.03394742       7.11254457
H       16.22349217       1.03796048       7.12327499
H       16.24260796      16.02710360       9.95169289
H        0.80014683       1.07258571       9.93598295
H        7.14412039       0.84189550      16.10703209
H        7.12181419      16.20482419       1.06592343
H        9.96681776      16.21436346      16.02193347
H        9.95234045       0.84910957       1.04229622
H       16.03539481       7.11862467       0.85678205
H        1.01454783       7.12802367      16.21151488
H       16.02505784       9.95934829      16.23069753
H        1.03936980       9.95208280       0.84956565
H        9.88767304       5.88325539      15.08268991
H        7.19891356      11.19651097      15.11353488
H        7.19134971       5.88455411       1.98312908
H        9.89294156      11.18157676       2.00956954
H       15.08860664       9.88604141       5.88606266
H       15.08895812       7.18454337      11.19942793
H        1.98887542       7.19004104       5.88660428
H        1.98694521       9.88305595      11.19012265
H        5.85463795      15.08210121       9.90507914
H       11.18592148      15.09618195       7.20298100
H        5.88964653       1.99012172       7.19962710
H       11.18318571       1.98218665       9.90043147
H        1.35847993      14.41803358       6.54831023
H       15.73478378       2.65155557       6.55029633
H       15.72442195      14.42521532      10.52894116
H        1.37401437       2.64428423      10.54015087
H        6.55927578       1.24884178      14.47743499
H        6.55703713      15.71900770       2.68258492
H       10.53203369      15.68161887      14.42017472
H       10.52567634       1.34676131       2.65317376
H       14.42189373       6.54990870       1.34990658
H        2.64004781       6.55867224      15.76073211
H       14.41763744      10.52874097      15.71926153
H        2.65104573      10.52413230       1.34497817
H       11.07354796       7.21897114      15.11453889
H        6.02604440       9.84886570      15.13897564
H        6.01495497       7.22899628       1.94882072
H       11.08431484       9.85046755       1.97104662
H       15.12167767      11.06818658       7.22538203
H       15.12106498       6.00591737       9.85701906
H        1.95191915       6.02108639       7.23751729
H        1.95662006      11.07024248       9.85543122
H        7.19281709      15.10403023      11.08884254
H        9.85205326      15.12480520       6.01495556
H        7.23387943       1.95644248       6.02318023
H        9.83562356       1.93690293      11.07269297
H        2.54441443      15.75388001       6.58035031
H       14.54942745       1.31500590       6.58025397
H       14.56198761      15.78119583      10.48890223
H        2.48600686       1.25203861      10.47589916
H        6.56955177       2.49098868      15.76198154
H        6.58926910      14.52955616       1.35079149
H       10.49594563      14.52956515      15.78486994
H       10.49331992       2.52553003       1.31075227
H       15.76019914       6.58134382       2.53312333
H        1.32714799       6.57592927      14.54711079
H       15.76831802      10.49249457      14.55013644
H        1.31067465      10.49193169       2.52553766
H        3.28382264       2.77371355      14.13375856
O        3.24944489       1.92646883      13.63497058
H        3.98730656       2.00711853      12.98622153
