279
Lattice="17.077406000000003 0.0 0.0 5.215997453110003e-05 17.07740799992035 0.0 7.272590734300007e-05 6.13995193216e-05 17.077407999734778" Properties=species:S:1:pos:R:3 i=141 E=-1809.3705297144 pbc="T T T"
Zn       8.53900505       4.19626050      -0.00081176
Zn       8.53835707      12.88163533      -0.00060058
Zn      -0.00291526       8.53842030       4.19175489
Zn       0.00309252       8.53903081      12.87825987
Zn       4.19579971      -0.00028218       8.53882535
Zn      12.88119335      -0.00046018       8.53791094
Zn       4.34307829       8.53892151      -0.00067622
Zn      12.73443104       8.53853221      -0.03976049
Zn       8.53863522       0.00005420       4.34167537
Zn       8.53809846      -0.00108672      12.73447126
Zn       0.00024017       4.34331338       8.53816318
Zn      -0.00055262      12.73409010       8.53758432
N       10.02229332       5.39806954       0.71945154
N        7.05763309      11.68204842       0.73557215
N        7.06286979       5.39943521      16.33231353
N       10.00474831      11.67453569      16.33025285
N        0.72163031      10.02752679       5.38321360
N        0.74093310       7.06022352      11.67822424
N       16.34763139       7.05531959       5.39028069
N       16.34697493      10.01904457      11.68016308
N        5.38941641       0.72932403      10.02598964
N       11.68653023       0.72983536       7.05128942
N        5.39398276      16.34926387       7.05589418
N       11.67835186      16.34708626      10.01584141
N        5.52232493      10.02544665       0.74373930
N       11.56239504       7.05025511       0.71969721
N        5.53041393       7.05954027      16.31921826
N       11.54395399      10.02185842      16.30871437
N       10.03302563       0.74190979       5.51263676
N        7.04282606       0.74343912      11.56466899
N        7.04872970      16.33668855       5.51882173
N       10.02114711      16.33423851      11.55016176
N        0.74530579       5.51652052      10.02947158
N        0.73898940      11.55823960       7.04397105
N       16.33750734       5.52023391       7.04687349
N       16.33334998      11.55107680      10.02104501
N        1.48054525      13.93316039       9.26799262
N       15.59174870       3.14799672       9.26486988
N       15.59425015      13.93194770       7.80521441
N        1.48553427       3.14798331       7.80933091
N        9.26849907       1.48232841      13.93213727
N        9.26963659      15.59583310       3.14211833
N        7.80382112      15.59736830      13.93481564
N        7.80778934       1.48552646       3.14423206
N       13.94620791       9.26249489       1.44240405
N        3.14343620       9.27126660      15.59698945
N       13.92349462       7.79475072      15.56104941
N        3.14828287       7.80374064       1.48180984
N       14.05853658       1.48968405       9.27916484
N        3.01845953      15.58708697       9.27875501
N       14.05725928      15.58688590       7.79484746
N        3.02215718       1.49280716       7.79753122
N        1.48412804       9.28453711      14.06487716
N       15.58454402       9.26772164       2.99954981
N       15.59188707       7.78298361      14.04084047
N        1.49324743       7.79538344       3.01922709
N        9.28574511      14.06026344       1.48573946
N        9.28079303       3.02036971      15.58599404
N        7.78854816      14.06560972      15.59461747
N        7.79481278       3.02603041       1.49209305
C       10.61843616       6.38727477      17.05929651
C        6.45405912      10.69795424      17.07544748
C        6.46730838       6.39315350      -0.01373167
C       10.61836006      10.69301543      -0.01398022
C       17.06964860      10.62205897       6.37909648
C       17.08407987       6.46451524      10.68658304
C       -0.00031741       6.46774817       6.39013228
C        0.00404777      10.62096758      10.69255402
C        6.38490770      17.07724716      10.62105214
C       10.69288476      17.07610014       6.45535157
C        6.39140362       0.00106955       6.46430118
C       10.68639596       0.00197931      10.61299547
C        2.07536057      14.92721225       8.53640297
C       15.00264404       2.14816940       8.53667724
C       14.99311879      14.91978233       8.53988436
C        2.07494161       2.14885659       8.53817233
C        8.53797021       2.07696203      14.92696919
C        8.53832674      14.99567081       2.15122164
C        8.53777899      14.99402084      14.92184434
C        8.53750322       2.08055748       2.14911947
C       14.93132518       8.52759056       2.04917838
C        2.15379177       8.53764006      14.99722063
C       14.91565242       8.52945347      14.96823650
C        2.15310285       8.53598917       2.07485253
C       10.60927656       5.44542841       2.00078674
C        6.48988358      11.62147328       2.02486209
C        6.48496494       5.44739642      15.04716383
C       10.55722875      11.61151019      15.03411110
C        2.00653046      10.60698669       5.42707607
C        2.02045485       6.46932929      11.63909460
C       15.07023134       6.45913406       5.42262794
C       15.05680857      10.58555593      11.62193584
C        5.42570800       2.01065606      10.61327869
C       11.64675764       2.01191690       6.46564198
C        5.42879246      15.06942192       6.46500988
C       11.62978960      15.06131172      10.59306017
C        5.54502478      10.60319517       2.02997039
C       11.55694084       6.46119228       2.00070720
C        5.54175851       6.46845954      15.03889751
C       11.50420131      10.59578875      15.02085706
C       10.63023801       2.01939554       5.51884552
C        6.44235533       2.01927695      11.56007284
C        6.44601426      15.06167567       5.51927255
C       10.61118485      15.05333485      11.53707247
C        2.02323802       5.51920612      10.62565950
C        2.01705043      11.54884380       6.44795639
C       15.06401501       5.51461643       6.44112836
C       15.04848297      11.52827008      10.60210395
C        2.06674798      13.97361228      10.54980696
C       15.00036262       3.11369347      10.54446156
C       15.02016133      13.98420649       6.51835742
C        2.08007965       3.11588883       6.53119069
C       10.55014856       2.06901297      13.97093485
C       10.55679381      15.02190535       3.09355305
C        6.51291196      15.03283078      13.99379613
C        6.52688321       2.07403836       3.10823767
C       13.98622629      10.54445143       2.02868520
C        3.08878506      10.55961309      15.02618835
C       13.98212936       6.50648067      14.99082255
C        3.10865654       6.52330407       2.07130922
C       14.05708681       2.09407450      10.55325896
C        3.01332374      14.99003932      10.55634772
C       14.07418256      15.00135750       6.51197376
C        3.02551484       2.09815820       6.52389064
C        2.06879222      10.56767803      14.08349130
C       14.99255829      10.54778417       2.98600692
C       15.00846068       6.49926172      14.05480482
C        2.09139449       6.51829754       3.01730344
C       10.56670281      14.07720026       2.07529584
C       10.55773187       3.01556753      14.98759972
C        6.50350617      14.09056252      15.01428838
C        6.51875034       3.02176318       2.09266921
H       10.30464024       4.76304053       2.79180915
H        6.80503157      12.29682673       2.81780117
H        6.78585856       4.75641953      14.26197976
H       10.22803692      12.27985824      14.24110954
H        2.79243630      10.30164718       4.73925666
H        2.80875954       6.77341316      12.32480442
H       14.28585073       6.75618838       4.72941343
H       14.26518722      10.27092610      12.29889597
H        4.73521867       2.79516236      10.31017890
H       12.33451605       2.79826389       6.77018461
H        4.73844763      14.28428106       6.76651300
H       12.31231318      14.27224064      10.28414142
H        4.89690437      10.24306470       2.82664745
H       12.21734582       6.81258900       2.79105195
H        4.88139101       6.81562528      14.24635262
H       12.13830771      10.23154058      14.21492184
H       10.28386636       2.81233950       4.85883977
H        6.78556717       2.81141291      12.22275020
H        6.79006858      14.26953034       4.85727694
H       10.25747117      14.25676045      12.18857267
H        2.81318283       4.85526743      10.28006152
H        2.81322057      12.20236494       6.79917928
H       14.27420100       4.84912587       6.78391188
H       14.24969499      12.17405488      10.24268330
H        1.76315634      13.28607457      11.33656872
H       15.29907104       3.80668549      11.32831115
H       15.33157802      13.30394535       5.72816937
H        1.78129119       3.80853997       5.74697817
H       11.33655316       1.76418136      13.28344046
H       11.34442222      15.33215007       3.77722173
H        5.72268986      15.34724339      13.31494551
H        5.74127022       1.76993455       3.79697853
H       13.30581820      11.33424605       1.71675451
H        3.76949412      11.34944887      15.33726496
H       13.30005297       5.71628899      15.29813241
H        3.79635146       5.73584928       1.76946856
H       13.39570245       1.74909658      11.34557846
H        3.67412610      15.33617231      11.34863361
H       13.42149651      15.35555913       5.71643962
H        3.68986431       1.75545821       5.73305528
H        1.71217804      11.36467116      13.43395353
H       15.33537760      11.33997566       3.64877039
H       15.37051219       5.70296685      13.40742078
H        1.74437066       5.72675525       3.67860556
H       11.36389128      13.42553873       1.72291440
H       11.35075749       3.67515350      15.33434669
H        5.70436975      13.44498383      15.37347886
H        5.72566656       3.68281331       1.74870638
C       10.22226671       6.76314623      15.63816356
C        6.83307637      10.33739576      15.64567748
C        6.86028453       6.77045471       1.40767147
C       10.24834298      10.32834002       1.41687920
C       15.64747051      10.23127280       6.75554882
C       15.66598168       6.86508881      10.30443045
C        1.41388135       6.87543805       6.77876675
C        1.43122434      10.23885980      10.32600651
C        6.76766290      15.65776070      10.22648388
C       10.31307452      15.65552908       6.84895804
C        6.77928183       1.41679715       6.86726046
C       10.30829741       1.42312347      10.21977653
C        1.67787037      15.30873730       7.11740274
C       15.40609097       1.76031269       7.12103444
C       15.37834126      15.28827917       9.96563102
C        1.66869179       1.75952022       9.95262143
C        7.11938513       1.68051407      15.31131797
C        7.11445500      15.38178602       1.77634040
C        9.96694178      15.37063584      15.28585811
C        9.95479068       1.68155213       1.76290263
C       15.31281050       7.10738003       1.65619868
C        1.78369927       7.11239114      15.38291433
C       15.27769831       9.95684750      15.35388900
C        1.77223106       9.95460941       1.67533924
H        9.41014368       7.51594716      15.64259775
H        7.67781150       9.62146870      15.63197292
H        7.68963070       7.50378376       1.40454373
H        9.40591165       9.60989574       1.43394663
H       15.64711470       9.40256173       7.48971096
H       15.67408953       7.71243597       9.59213983
H        1.39824628       7.71456173       7.50078047
H        1.44127875       9.38976430       9.61557238
H        7.51412546      15.66293690       9.40894266
H        9.58676698      15.65798163       7.68443881
H        7.51198460       1.40355918       7.69714345
H        9.58319089       1.42039388       9.38308831
H        0.83382974      16.02504110       7.12341873
H       16.23251056       1.02380464       7.13426592
H       16.22452651      16.00220651       9.97324436
H        0.83268038       1.03391895       9.93720085
H        7.12676813       0.85318042      16.04687017
H        7.11163953      16.19428807       1.02422999
H        9.98098806      16.18680455      16.03400007
H        9.94458562       0.85816410       1.02283638
H       16.04234922       7.11144992       0.82329392
H        1.05824323       7.10667794      16.21923987
H       15.98166429       9.96767388      16.20817697
H        1.06201631       9.94804356       0.82613052
H        9.86006924       5.88490196      15.08301274
H        7.14590570      11.22817482      15.08037864
H        7.19920358       5.88904908       1.97250421
H        9.93621745      11.21732495       1.98574569
H       15.08333128       9.89265036       5.87325251
H       15.09087024       7.18139855      11.18791096
H        1.98675826       7.20641871       5.89916627
H        2.00143705       9.93193441      11.21608406
H        5.89090832      15.09555070       9.87150116
H       11.19534657      15.08645140       7.17913667
H        5.90158582       1.98597548       7.20910992
H       11.19112795       1.99204004       9.89076563
H        1.35786181      14.42539707       6.54399306
H       15.75276645       2.63723205       6.55369311
H       15.69037784      14.39916792      10.53456890
H        1.33403478       2.63814315      10.52479406
H        6.55158539       1.33782156      14.43322233
H        6.55731777      15.74052456       2.65470967
H       10.52160663      15.72028727      14.40222941
H       10.52061974       1.33221465       2.63966047
H       14.43214173       6.53807706       1.32188248
H        2.66965216       6.54693987      15.70965894
H       14.38405648      10.52518947      15.65392717
H        2.65719327      10.52966547       1.36242711
H       11.07320795       7.19622374      15.09150516
H        5.98710902       9.86950668      15.12065699
H        6.01429769       7.22600076       1.94332683
H       11.09680999       9.85998094       1.93713601
H       15.11216695      11.07858737       7.20928851
H       15.13704687       6.02923516       9.82317826
H        1.94949959       6.03859039       7.25117451
H        1.95480849      11.07996149       9.84822976
H        7.20907437      15.11677523      11.07680958
H        9.84914451      15.12338670       6.00521403
H        7.23933748       1.95459694       6.02481759
H        9.84283648       1.95487094      11.06303816
H        2.51628599      15.78502721       6.58786525
H       14.56255535       1.30479922       6.58111674
H       14.53640521      15.76240439      10.49144607
H        2.50721806       1.29072095      10.48876333
H        6.58334827       2.52660104      15.76692106
H        6.57373155      14.52652160       1.34411632
H       10.50339248      14.51279322      15.71843457
H       10.49435766       2.52802855       1.31237435
H       15.77438495       6.57518528       2.50134430
H        1.32180257       6.58176064      14.53719619
H       15.76001165      10.48136420      14.51609412
H        1.28929858      10.48254716       2.51082025
H        8.56976856       7.79462076      10.91099444
O        8.51193265       8.61120426      11.45643335
H        8.07324059       8.30761442      12.28385620
