279
Lattice="17.077406000000003 0.0 0.0 5.215997453110003e-05 17.07740799992035 0.0 7.272590734300007e-05 6.13995193216e-05 17.077407999734778" Properties=species:S:1:pos:R:3 i=115 E=-1809.3735135316 pbc="T T T"
Zn       8.53768442       4.19557009       0.00007965
Zn       8.53686864      12.88212970      -0.00002727
Zn       0.00021526       8.53916646       4.19686919
Zn      -0.04040185       8.53878516      12.87906654
Zn       4.19585020       0.00012414       8.53900912
Zn      12.88144078      -0.00115795       8.53924589
Zn       4.33720115       8.53759213      -0.00376348
Zn      12.73306726       8.53691154       0.00357295
Zn       8.53907164      -0.00014404       4.34293146
Zn       8.53972061      -0.00059233      12.73326404
Zn       0.00026103       4.34308820       8.53905958
Zn      -0.00088736      12.73474377       8.53918620
N       10.01990710       5.39207006       0.73148230
N        7.04923889      11.68460645       0.72185417
N        7.05457753       5.39465557      16.34668612
N       10.02220287      11.68581901      16.34884204
N        0.73054436      10.02414128       5.39234998
N        0.71223933       7.05968081      11.68530488
N       16.34813370       7.05408799       5.39150291
N       16.31791036      10.01495284      11.67146092
N        5.39095108       0.73050987      10.02430209
N       11.68619089       0.73151505       7.05350381
N        5.39315501      16.34789351       7.05521410
N       11.67766669      16.34163091      10.01484445
N        5.50297402      10.03842464       0.73134704
N       11.55153735       7.05147169       0.74761710
N        5.52014064       7.05232814      16.33117483
N       11.55885457      10.03049519      16.33836677
N       10.03230108       0.74120736       5.51501292
N        7.04559738       0.74312987      11.56172755
N        7.04705348      16.33612155       5.51726196
N       10.02078265      16.33038713      11.54966132
N        0.73582251       5.52226256      10.03064713
N        0.74699973      11.56026004       7.04830345
N       16.33644732       5.51574236       7.04512419
N       16.32340363      11.55404012      10.01881703
N        1.47964109      13.93616458       9.27228114
N       15.59565555       3.14403661       9.26805031
N       15.59775551      13.93519917       7.80045362
N        1.48696982       3.14874222       7.81064956
N        9.26833236       1.48232190      13.93313239
N        9.26593600      15.59030963       3.14704460
N        7.80881223      15.59258967      13.92995796
N        7.80935445       1.48306946       3.14540123
N       13.92891040       9.26682882       1.48622642
N        3.12264722       9.25465555      15.59247115
N       13.91471484       7.79559420      15.59816531
N        3.14532720       7.80796947       1.48421758
N       14.06113918       1.48694832       9.28252467
N        3.01966996      15.58829139       9.28152387
N       14.05958305      15.58917313       7.79174041
N        3.02235991       1.49257668       7.79757074
N        1.44573300       9.27344703      14.07706355
N       15.58737156       9.27984965       3.01926182
N       15.54720256       7.78487740      14.03982001
N        1.49368548       7.79647431       3.02461687
N        9.27611598      14.05053472       1.49489792
N        9.27830966       3.02202170      15.58563396
N        7.79923038      14.05471063      15.58373791
N        7.79598985       3.01977663       1.49039802
C       10.61047049       6.39114879      17.08091536
C        6.44904506      10.69475893      17.06696729
C        6.46132380       6.39158887      -0.00198723
C       10.60471635      10.68087281      -0.00252981
C       17.07851858      10.62093243       6.38685244
C       17.06474252       6.46270534      10.68780089
C       -0.00057367       6.46392139       6.39032787
C       -0.01163428      10.62553361      10.69894193
C        6.38743441      17.07826831      10.61726686
C       10.69238353      17.07707307       6.45895987
C        6.39023490       0.00004345       6.46343757
C       10.69179680       0.00010249      10.61811587
C        2.07770968      14.92696340       8.53892933
C       15.00299133       2.14717823       8.53869733
C       14.99228628      14.91858057       8.53762580
C        2.07711502       2.15010037       8.53948843
C        8.53683163       2.07699401      14.92725623
C        8.53592153      14.99883370       2.15020655
C        8.54058522      14.99910399      14.92418619
C        8.53857077       2.07521895       2.14825236
C       14.92940069       8.53844858       2.07422062
C        2.12414120       8.52420523      15.00222444
C       14.89638419       8.52906303      14.98687796
C        2.14918969       8.53792227       2.07789470
C       10.60739113       5.42884786       2.01276787
C        6.46290000      11.64604367       2.00369457
C        6.46897489       5.43331108      15.06457103
C       10.63027256      11.66554990      15.07703896
C        2.01473318      10.60532817       5.43371359
C        1.99605685       6.47753062      11.65079095
C       15.07043216       6.45832730       5.42207137
C       15.02449078      10.57292845      11.59245215
C        5.42692894       2.01089820      10.61375526
C       11.64615393       2.01262980       6.46609295
C        5.42716705      15.06870909       6.46290057
C       11.61881384      15.05150752      10.58220810
C        5.51166925      10.63378369       2.00961723
C       11.55024471       6.44900278       2.02245814
C        5.52458358       6.45212493      15.05499507
C       11.57656053      10.64671477      15.07063329
C       10.62962759       2.01881245       5.51931453
C        6.44418704       2.01862777      11.55974843
C        6.44391566      15.06142238       5.51645820
C       10.60041058      15.04436700      11.52623727
C        2.01054673       5.53119202      10.63376691
C        2.02463256      11.55057852       6.45167192
C       15.06328627       5.51194570       6.43884781
C       15.02819887      11.51985924      10.57721204
C        2.06255843      13.98043549      10.55546731
C       15.00933130       3.10566024      10.54980031
C       15.03023704      13.99452344       6.51097526
C        2.07795205       3.11391613       6.53090886
C       10.54919505       2.07063274      13.97176360
C       10.54413510      14.99582786       3.11467518
C        6.52839693      15.00380844      13.96841526
C        6.52883762       2.07215413       3.10941105
C       13.96197566      10.54534451       2.08022764
C        3.06510240      10.54317764      15.02202176
C       13.95399450       6.51013384      15.01943763
C        3.11116107       6.52833679       2.07575794
C       14.06510176       2.08695382      10.55876077
C        3.01050098      14.99579124      10.56118747
C       14.08365847      15.01127455       6.50552364
C        3.02284928       2.09571137       6.52287858
C        2.03495123      10.55463023      14.09029412
C       14.98162939      10.55327154       3.02341490
C       14.95868556       6.50398261      14.06022621
C        2.09576994       6.52137338       3.02368497
C       10.55055260      14.04853121       2.09884868
C       10.55534630       3.01818008      14.98740272
C        6.52209411      14.05725759      14.98504469
C        6.52057283       3.01794287       2.09205794
H       10.30664778       4.73703423       2.79691069
H        6.77054032      12.33142895       2.79082588
H        6.77139470       4.74279100      14.27987622
H       10.35519082      12.37706021      14.30183692
H        2.80067810      10.29846241       4.74656678
H        2.77863015       6.78374945      12.34205785
H       14.28655159       6.75695247       4.72898184
H       14.21718855      10.24437189      12.24325961
H        4.73657511       2.79596764      10.31188678
H       12.33326981       2.79974878       6.77005203
H        4.73586153      14.28392596       6.76315161
H       12.29296403      14.25742392      10.26822377
H        4.84996970      10.28956496       2.80197236
H       12.21020086       6.79506078       2.81556898
H        4.86435759       6.79748374      14.26178159
H       12.26057496      10.32375820      14.28933147
H       10.28271714       2.81108468       4.85883405
H        6.78888958       2.81090556      12.22139022
H        6.78696668      14.27026428       4.85263927
H       10.24097643      14.24269650      12.16796879
H        2.80679501       4.87347810      10.29045090
H        2.81988227      12.20699803       6.79966524
H       14.27276513       4.84649424       6.78006589
H       14.22849897      12.15739347      10.20590226
H        1.75498540      13.29683393      11.34414962
H       15.31208813       3.79541776      11.33496196
H       15.34647983      13.31915797       5.71843886
H        1.77722203       3.80504439       5.74612427
H       11.33598386       1.76677406      13.28441324
H       11.32891482      15.29523715       3.80629475
H        5.74167110      15.30705792      13.28058969
H        5.74361354       1.76973829       3.79929065
H       13.26841131      11.32934582       1.78295438
H        3.74929512      11.33217212      15.32802704
H       13.27469341       5.72178376      15.33716334
H        3.80070518       5.74284383       1.77327213
H       13.40638259       1.73993502      11.35240033
H        3.66817589      15.34551611      11.35460852
H       13.43519200      15.37015269       5.70851675
H        3.68514915       1.75139624       5.73099173
H        1.67262925      11.35354330      13.44624045
H       15.32477054      11.34418413       3.68735001
H       15.30144405       5.70979039      13.39992170
H        1.75292006       5.72989921       3.68722728
H       11.34115536      13.38350961       1.75686779
H       11.34755294       3.67925039      15.33326476
H        5.72987919      13.39661097      15.33175917
H        5.72794858       3.67904511       1.74717791
C       10.21209822       6.77599817      15.66282124
C        6.84136629      10.31283973      15.64655308
C        6.85807973       6.77484579       1.41678146
C       10.19474599      10.28863545       1.40982394
C       15.65778472      10.22953699       6.76818049
C       15.64593767       6.85488993      10.30008567
C        1.41331361       6.87048537       6.78131087
C        1.41991174      10.24621007      10.34664898
C        6.77178963      15.66091789      10.21635877
C       10.31275995      15.65758444       6.85659671
C        6.77814814       1.41574584       6.86651783
C       10.32181503       1.42541726      10.23223650
C        1.68306935      15.30613221       7.11846827
C       15.40296948       1.76205346       7.12133017
C       15.36920763      15.27804236       9.96787050
C        1.67413621       1.76350251       9.95560578
C        7.11899576       1.67744828      15.31124523
C        7.12081452      15.40349113       1.76165478
C        9.95960740      15.39907963      15.30318405
C        9.95542592       1.67388174       1.76244523
C       15.31713018       7.12332218       1.66882551
C        1.75458359       7.09974055      15.39151640
C       15.27790582       9.95272044      15.36764375
C        1.76024912       9.95397513       1.67688562
H        9.38049460       7.50708041      15.67208164
H        7.64021930       9.54590778      15.65149441
H        7.69366578       7.50100426       1.41033348
H        9.36682729       9.55417958       1.39148987
H       15.66104607       9.42790387       7.53167496
H       15.65213463       7.69059625       9.57418430
H        1.39681990       7.69743412       7.51724515
H        1.43784105       9.40415925       9.62777405
H        7.49759659      15.67043017       9.38053869
H        9.60400928      15.66235581       7.70691072
H        7.51477530       1.40285228       7.69287016
H        9.59485510       1.43108173       9.39702674
H        0.84511606      16.02954816       7.12206408
H       16.22376593       1.01918293       7.13149439
H       16.21272138      15.99506794       9.98471233
H        0.84015455       1.03546963       9.94304808
H        7.12795746       0.85095590      16.04776001
H        7.13478699      16.23022217       1.02554969
H        9.95466252      16.26630367      15.99110713
H        9.94446670       0.84109762       1.03303680
H       16.02945738       7.13677784       0.82152930
H        1.04582286       7.09535106      16.24212648
H       16.10324015       9.95520010      16.10543660
H        1.00898041       9.94134786       0.86382148
H        9.87373318       5.89683057      15.09393326
H        7.21932803      11.18603358      15.09380477
H        7.18990530       5.89396697       1.98700114
H        9.84800695      11.16458104       1.97855359
H       15.10316047       9.85471109       5.89504943
H       15.07097355       7.18499883      11.17844468
H        1.98190522       7.21759879       5.90534322
H        1.97892375       9.92981430      11.24037941
H        5.89072433      15.09120410       9.88382363
H       11.19829198      15.08273618       7.16810719
H        5.90111206       1.98309310       7.21291172
H       11.20731697       1.99037412       9.90385534
H        1.35543893      14.42313899       6.54911497
H       15.75595285       2.63868456       6.55760199
H       15.68101208      14.38550135      10.53136368
H        1.33774462       2.64284566      10.52561807
H        6.55311299       1.33224129      14.43286340
H        6.55321330      15.75011408       2.63843112
H       10.54126350      15.68604204      14.41344538
H       10.52493311       1.33652929       2.64168994
H       14.43542623       6.54651700       1.35022784
H        2.64415203       6.52923628      15.69975930
H       14.42677742      10.48389302      15.81729280
H        2.63326444      10.51642312       1.31343434
H       11.05627751       7.23552570      15.12738599
H        5.98285728       9.89544807      15.09876468
H        6.01578809       7.24019477       1.95001847
H       11.03552332       9.82959248       1.95093065
H       15.11080236      11.08655054       7.18905168
H       15.11749429       6.01073952       9.83279348
H        1.95366135       6.02806593       7.23840276
H        1.94975874      11.09172997       9.88339238
H        7.23852025      15.12595227      11.05667374
H        9.82901599      15.13027706       6.02116929
H        7.23342132       1.95520202       6.02252066
H        9.86133990       1.95705040      11.07822968
H        2.52506121      15.77340025       6.58651285
H       14.55600323       1.31491272       6.57977940
H       14.52282908      15.74485103      10.49311375
H        2.51468173       1.29865208      10.49203599
H        6.57985756       2.52225219      15.76539790
H        6.58048938      14.56042894       1.30567769
H       10.48000644      14.57329547      15.81008814
H       10.49189885       2.51549044       1.29947080
H       15.79996804       6.59269121       2.50278142
H        1.27370116       6.57402585      14.55331145
H       15.61828587      10.52000447      14.48766427
H        1.32180601      10.49839289       2.52668917
H       10.28222166      10.30238618      12.48494017
O       10.66480315      10.47050549      11.59348537
H        9.95420022      10.19847158      10.97098434
