279
Lattice="17.077406000000003 0.0 0.0 5.215997453110003e-05 17.07740799992035 0.0 7.272590734300007e-05 6.13995193216e-05 17.077407999734778" Properties=species:S:1:pos:R:3 i=137 E=-1809.3736306227 pbc="T T T"
Zn       8.53931591       4.19685742      -0.00088204
Zn       8.53975976      12.87951619      -0.00236215
Zn       0.00045711       8.53893675       4.19584647
Zn      -0.00090878       8.53937491      12.88124280
Zn       4.19603961      -0.00031917       8.50044055
Zn      12.88282458      -0.00001695       8.50085945
Zn       4.34260817       8.53857903      -0.00001414
Zn      12.73489935       8.53914003      -0.00165478
Zn       8.53873704      -0.00013629       4.33387967
Zn       8.53859564      -0.00034608      12.73002665
Zn       0.00023085       4.34254182       8.53934076
Zn      -0.00049217      12.73285641       8.53931742
N       10.02629016       5.39035568       0.72896089
N        7.05282197      11.68636253       0.73201030
N        7.05806907       5.39530263      16.34491747
N       10.01171297      11.67320904      16.33999928
N        0.73187551      10.02272029       5.39177520
N        0.73543374       7.05527604      11.68432792
N       16.34927516       7.05474895       5.39288238
N       16.34528098      10.01610681      11.67872050
N        5.40467235       0.72263887       9.98706655
N       11.69418445       0.73405530       7.02062613
N        5.39204281      16.33434275       7.02888451
N       11.67700615      16.35357142       9.98993082
N        5.51295559      10.03312191       0.74388373
N       11.56478858       7.04425227       0.74478678
N        5.52233525       7.05109706      16.33300329
N       11.54886088      10.01872211      16.33066848
N       10.02736332       0.75183060       5.49890071
N        7.04476973       0.72715646      11.54233591
N        7.05614780      16.32074240       5.50367589
N       10.03959850      16.34898892      11.54832887
N        0.74286077       5.51270877      10.03377126
N        0.74829967      11.55683625       7.04938115
N       16.33585950       5.51984452       7.04966429
N       16.33378826      11.54999990      10.02103915
N        1.47898915      13.94192886       9.26045070
N       15.59202070       3.14146101       9.26048161
N       15.59623098      13.92746827       7.79566238
N        1.48393347       3.14955315       7.79955940
N        9.26106147       1.48791309      13.92337408
N        9.27698297      15.60107202       3.13205959
N        7.81634964      15.58806950      13.92344664
N        7.80135754       1.48070741       3.13709660
N       13.93747156       9.27125727       1.47745799
N        3.14242050       9.27004718      15.59800783
N       13.93409244       7.80038501      15.59589531
N        3.14781184       7.80786763       1.48515240
N       14.04954874       1.49141790       9.25740817
N        3.02072876      15.59245552       9.25543601
N       14.06014447      15.58308241       7.77603919
N        3.01906377       1.49330754       7.77168617
N        1.48293969       9.28485381      14.06619951
N       15.58893989       9.28005216       3.01836258
N       15.59099547       7.78930252      14.06089980
N        1.49399565       7.79618044       3.02346177
N        9.28768146      14.06219011       1.47961421
N        9.27799312       3.01781704      15.58505329
N        7.79604142      14.05401969      15.58123884
N        7.79204732       3.02474116       1.48897929
C       10.62433328       6.38422746      17.07680654
C        6.45614722      10.69286409      17.07863797
C        6.46678470       6.39254069      -0.00257908
C       10.61997188      10.69243929       0.00133320
C       17.08049419      10.61676248       6.38831794
C       17.07873939       6.45604753      10.69481375
C       -0.00003511       6.46573364       6.39270429
C        0.00631277      10.62484164      10.69810118
C        6.39156654      17.06562109      10.59122528
C       10.69481764      17.08297905       6.43282020
C        6.38658898      -0.01108895       6.43670560
C       10.67689576       0.00331709      10.58098520
C        2.07937605      14.92458671       8.51804631
C       15.00297429       2.14718146       8.52467959
C       14.99594623      14.91952516       8.52482238
C        2.08241084       2.15251472       8.52346287
C        8.53463222       2.07513342      14.92568434
C        8.54284630      15.00026225       2.14356078
C        8.54330526      14.99272345      14.92076754
C        8.53419830       2.08013166       2.14671303
C       14.93006774       8.53879996       2.07360057
C        2.15163914       8.53753467      14.99901199
C       14.91702134       8.53735621      14.98952566
C        2.14992192       8.53712360       2.07642651
C       10.60769479       5.43164658       2.01316846
C        6.46717666      11.64577490       2.01416168
C        6.46738993       5.43106097      15.06505738
C       10.57186179      11.60707417      15.04694208
C        2.01479293      10.60655486       5.43096942
C        2.01820257       6.47169615      11.63988391
C       15.07056616       6.46143045       5.42576070
C       15.05052903      10.57213833      11.60870021
C        5.44247506       2.00297738      10.57704392
C       11.65098458       2.01789378       6.43958284
C        5.44162916      15.04882088       6.45165740
C       11.66804946      15.08636803      10.60811183
C        5.51973760      10.62979813       2.02149500
C       11.55428150       6.44836782       2.02257348
C        5.52232591       6.44913315      15.05771106
C       11.51746844      10.59034691      15.04121547
C       10.62557235       2.02878318       5.50265189
C        6.45005822       2.00588713      11.53328873
C        6.46529581      15.04033818       5.51267884
C       10.66144239      15.08350608      11.56731254
C        2.02301363       5.52244293      10.62563774
C        2.02472277      11.55049469       6.45012996
C       15.06228145       5.51688637       6.44426955
C       15.04310382      11.51521261      10.58982911
C        2.05911933      13.99931060      10.54439380
C       14.98992581       3.10625172      10.53532039
C       15.02150616      13.97187712       6.50903037
C        2.06021199       3.11255970       6.51314262
C       10.54069928       2.07984237      13.95656282
C       10.56325944      15.02516203       3.08223677
C        6.53239518      15.00524277      13.96127235
C        6.51880205       2.06537893       3.09578837
C       13.97818427      10.55270459       2.06441160
C        3.08958719      10.55816692      15.02669284
C       13.99758657       6.50862925      15.03373269
C        3.11486833       6.52921765       2.07866299
C       14.04103656       2.09172929      10.53354617
C        3.00798627      15.01389096      10.54134832
C       14.07607960      14.98938527       6.49653766
C        3.00483013       2.09430190       6.49583883
C        2.06925382      10.56723245      14.08420494
C       14.99298460      10.55809484       3.01288834
C       15.01628054       6.50175652      14.08922670
C        2.09807389       6.52201900       3.02513211
C       10.56987929      14.07806540       2.06611123
C       10.55093228       3.02090189      14.97821072
C        6.52040562      14.06155175      14.98056779
C        6.51310557       3.01577033       2.08268731
H       10.30063280       4.74502337       2.79941298
H        6.77201362      12.33277270       2.80100971
H        6.76777749       4.73996445      14.28000679
H       10.25103773      12.27078432      14.24748395
H        2.79977336      10.30266649       4.74141896
H        2.80725597       6.77920272      12.32320008
H       14.28682212       6.76008707       4.73258740
H       14.25288465      10.25239674      12.27564574
H        4.75978974       2.79207967      10.26827855
H       12.34244165       2.80229818       6.74041885
H        4.75438834      14.26177922       6.75537311
H       12.37771557      14.31084161      10.32945391
H        4.85949435      10.28348891       2.81426698
H       12.21134361       6.79593333       2.81747604
H        4.85999054       6.79372799      14.26605032
H       12.15832304      10.23014816      14.23925882
H       10.27421438       2.82331964       4.84740759
H        6.79209146       2.79668234      12.19819489
H        6.81950424      14.24579696       4.85888343
H       10.35263230      14.30698627      12.26323049
H        2.81580707       4.86329472      10.27729368
H        2.81915299      12.20827849       6.79727202
H       14.27111268       4.85314696       6.78743367
H       14.23640322      12.14525445      10.22215524
H        1.74881005      13.32449409      11.33964644
H       15.28538226       3.79559696      11.32366311
H       15.33244423      13.28699526       5.72274493
H        1.75061584       3.80235858       5.73066573
H       11.32356480       1.78227217      13.26179853
H       11.35333399      15.33691625       3.76246149
H        5.74811014      15.31064227      13.27157180
H        5.73055474       1.75749075       3.77977454
H       13.29263094      11.34048499       1.75894004
H        3.77082323      11.34732007      15.33859206
H       13.32407922       5.71549323      15.35249123
H        3.80660520       5.74461391       1.77878088
H       13.37095073       1.74838023      11.31928971
H        3.66394379      15.37189027      11.33249448
H       13.42409353      15.33992965       5.69879494
H        3.65743081       1.74818028       5.69665407
H        1.71276325      11.36463846      13.43507099
H       15.33966406      11.35002267       3.67386651
H       15.37851979       5.70281296      13.44495867
H        1.75550700       5.73104439       3.68937494
H       11.36514168      13.42460260       1.71291268
H       11.34340104       3.68255563      15.32224734
H        5.72464341      13.40489995      15.32687450
H        5.72015922       3.67546371       1.73579101
C       10.23498624       6.76511020      15.65539706
C        6.84910993      10.31133739      15.65839305
C        6.86960482       6.77924934       1.41353868
C       10.24157457      10.33024875       1.43066196
C       15.66131028      10.22126509       6.77144491
C       15.65681392       6.84917090      10.31988351
C        1.41470372       6.87048590       6.78245162
C        1.43767066      10.25050670      10.33927857
C        6.77240375      15.64540170      10.19721955
C       10.31683777      15.66223641       6.82800338
C        6.75982966       1.41190710       6.82805332
C       10.27647781       1.41233506      10.16755833
C        1.68774856      15.29148143       7.09344979
C       15.41361474       1.76051453       7.11087381
C       15.38214437      15.29211805       9.94931538
C        1.69297636       1.76619921       9.94345333
C        7.11907231       1.67205832      15.31387722
C        7.12029418      15.38984938       1.76692050
C        9.96374410      15.38169222      15.30525802
C        9.95352833       1.68557111       1.76306074
C       15.31247072       7.12013135       1.67567669
C        1.77860587       7.11348119      15.38626535
C       15.27376383       9.96932851      15.36232108
C        1.76164539       9.95288912       1.67376455
H        9.43369993       7.52906802      15.65771882
H        7.66748172       9.56582417      15.66220837
H        7.70513600       7.50551251       1.40117440
H        9.40232466       9.60794711       1.44442075
H       15.66767578       9.40471876       7.51899313
H       15.65643181       7.70236351       9.61457901
H        1.39946693       7.69687376       7.51907291
H        1.45579825       9.41772860       9.60958308
H        7.49317710      15.64899336       9.35656958
H        9.58238382      15.66622886       7.65657557
H        7.48621116       1.41348368       7.66332280
H        9.53010597       1.38816322       9.35036225
H        0.85715254      16.02349905       7.08965077
H       16.23333810       1.01659979       7.12764813
H       16.26881168      15.95478906       9.95670049
H        0.87067582       1.02480140       9.93831465
H        7.13157510       0.84172360      16.04602141
H        7.12104307      16.22275158       1.03755729
H        9.96045204      16.14788741      16.10443213
H        9.94681320       0.86517875       1.01976445
H       16.03147874       7.12695188       0.83392498
H        1.04352989       7.11072403      16.21417455
H       16.00519574       9.98923435      16.19334138
H        1.02133892       9.94020913       0.85068260
H        9.86072617       5.89207515      15.10020772
H        7.20301417      11.18810977      15.09570894
H        7.20344395       5.89961993       1.98464296
H        9.92177514      11.21967574       1.99467423
H       15.09988638       9.86480754       5.89471296
H       15.08256067       7.15484104      11.20786908
H        1.98293773       7.21771178       5.90635402
H        1.99751404       9.92372814      11.22866262
H        5.88906068      15.07394048       9.87338168
H       11.19893790      15.09873066       7.16790207
H        5.87517190       1.97723500       7.15775422
H       11.14682186       1.98003959       9.80519817
H        1.35142564      14.40603391       6.53341169
H       15.77151168       2.63606299       6.54862679
H       15.63392395      14.39693927      10.53930066
H        1.34567962       2.64284405      10.51085622
H        6.54951218       1.33098211      14.43594810
H        6.55301976      15.72270677       2.64921800
H       10.50538742      15.80052602      14.44449766
H       10.51843094       1.33431279       2.63947425
H       14.43015445       6.54729110       1.35214224
H        2.66138173       6.55047153      15.72496843
H       14.38312895      10.52655366      15.68989379
H        2.63761225      10.51914753       1.32315221
H       11.09323736       7.18562990      15.11003851
H        5.99796905       9.86921940      15.11910435
H        6.02924171       7.24622378       1.94843184
H       11.08868653       9.86724864       1.95823473
H       15.11962486      11.07122220       7.21257496
H       15.13202007       6.01343808       9.83401558
H        1.95471367       6.02730307       7.23864449
H        1.96694970      11.10199459       9.88600238
H        7.24263484      15.11690574      11.04004808
H        9.86276473      15.12482381       5.98222630
H        7.22103394       1.94534921       5.98381804
H        9.82843044       1.95768550      11.01185418
H        2.53415331      15.74507971       6.55632478
H       14.56991965       1.31387702       6.56355995
H       14.56250238      15.82397614      10.45351375
H        2.54321577       1.31713717      10.47804918
H        6.58145214       2.51434567      15.77440404
H        6.58842260      14.54396018       1.30676833
H       10.52362268      14.51169818      15.68133217
H       10.49206771       2.53477735       1.31671933
H       15.78614344       6.58951563       2.51491707
H        1.32653282       6.57902102      14.53759276
H       15.72266639      10.49876037      14.50882728
H        1.31061903      10.49359921       2.51922748
H       10.36444898      10.73994930      10.58882164
O       10.90687819      11.49579293      10.90690008
H       10.48865109      12.28338271      10.49020450
