279
Lattice="17.077406000000003 0.0 0.0 5.215997453110003e-05 17.07740799992035 0.0 7.272590734300007e-05 6.13995193216e-05 17.077407999734778" Properties=species:S:1:pos:R:3 i=111 E=-1809.3744532325 pbc="T T T"
Zn       8.53929884       4.19301362      -0.00396928
Zn       8.53905763      12.87801351       0.04389559
Zn       0.00017846       8.53843370       4.19551694
Zn       0.00001234       8.53918098      12.88118005
Zn       4.19204360      -0.00127405       8.54063891
Zn      12.88193850       0.00028344       8.53964047
Zn       4.34194461       8.53779998      -0.00034793
Zn      12.73473212       8.53781768      -0.00043443
Zn       8.53925730       0.00377572       4.34656633
Zn       8.53953229      -0.04353885      12.74172862
Zn      -0.00008398       4.34235346       8.53881986
Zn       0.00014517      12.73462743       8.53841068
N       10.02005024       5.39150293       0.72693685
N        7.05603606      11.67371034       0.76363945
N        7.05688678       5.39189053      16.33867388
N       10.01269763      11.67907442      16.36971489
N        0.73487711      10.01797981       5.39426326
N        0.73689070       7.05857344      11.68183111
N       16.34212417       7.05960010       5.39612343
N       16.34064947      10.01770892      11.68045735
N        5.39264868       0.72316092      10.03268051
N       11.67871183       0.73976152       7.06466779
N        5.40364134      16.34369131       7.07080185
N       11.68236897      16.33717244      10.01941203
N        5.51734776      10.02053443       0.75653955
N       11.55732772       7.04623854       0.74282563
N        5.52109760       7.04884012      16.32816221
N       11.54952762      10.02397697      16.34098686
N       10.01925370       0.75518661       5.53240788
N        7.03929526       0.71553796      11.57982698
N        7.05242412      16.33554461       5.52685308
N       10.02092042      16.30778584      11.54931518
N        0.74710249       5.52153390      10.02641119
N        0.74636264      11.55067549       7.05341861
N       16.33080248       5.52463110       7.05309589
N       16.32806926      11.55288384      10.02336124
N        1.47979740      13.93317931       9.26827520
N       15.59312302       3.14640993       9.27151013
N       15.59719559      13.93524440       7.80183287
N        1.48177406       3.14533813       7.80396512
N        9.26599701       1.45401763      13.93862252
N        9.28673215      15.60100119       3.16288468
N        7.80679173      15.57774114      13.96385414
N        7.80356862       1.47944432       3.14119695
N       13.93581018       9.27146328       1.47810324
N        3.14383782       9.27165906      15.59617518
N       13.93344104       7.80387031      15.59559027
N        3.14101844       7.79837876       1.47790866
N       14.05630331       1.49095649       9.28497692
N        3.00688647      15.59663821       9.28617292
N       14.06214897      15.59230659       7.79251091
N        3.02462653       1.49568081       7.79762498
N        1.48627920       9.28567400      14.06164776
N       15.59294900       9.28462493       3.01290751
N       15.59106991       7.79130694      14.06123300
N        1.48651009       7.78870931       3.01590933
N        9.29321650      14.03775679       1.53476947
N        9.27910599       3.00800931      15.58089274
N        7.79513236      14.06745423      15.64261771
N        7.79296613       3.01239160       1.48223588
C       10.61965452       6.38368124      17.07366745
C        6.45434593      10.69410522      17.09595549
C        6.45593382       6.38011962      -0.00415210
C       10.61604637      10.68534813       0.01696076
C       17.07728413      10.61925557       6.38211555
C       17.07955867       6.45712025      10.69396670
C       -0.00171102       6.46099016       6.38656700
C       -0.00192892      10.62144845      10.69396605
C        6.37595285      17.05926486      10.63276657
C       10.68795823      17.08499215       6.46528929
C        6.38906652       0.00171025       6.46660604
C       10.68496213      -0.01611128      10.61734320
C        2.08569967      14.91728934       8.53308030
C       14.99302838       2.15617829       8.53906189
C       14.99780010      14.92388331       8.53717771
C        2.07587429       2.15185349       8.53720830
C        8.53783451       2.05586250      14.93157494
C        8.55016234      14.98572238       2.18596920
C        8.54463943      14.98354821      14.95448206
C        8.53849535       2.07887559       2.15235037
C       14.92435886       8.53783303       2.07951874
C        2.15401278       8.53884855      14.99560330
C       14.92110649       8.53833489      14.99355510
C        2.15347838       8.53343294       2.07962428
C       10.59694960       5.43691145       2.01298302
C        6.48116625      11.60900790       2.04966835
C        6.48412035       5.44635824      15.05111543
C       10.58247192      11.63677342      15.08052131
C        2.02399982      10.58674534       5.45209525
C        2.02416977       6.48529135      11.62833401
C       15.05621048       6.48306222       5.44610222
C       15.05066380      10.58476590      11.62242622
C        5.44097366       2.00312584      10.62131891
C       11.62640141       2.02787030       6.49326296
C        5.45427469      15.05732320       6.49518497
C       11.64014093      15.04877514      10.59096520
C        5.53430458      10.59269221       2.04543591
C       11.54286845       6.45400582       2.02258143
C        5.53898684       6.46484385      15.04477555
C       11.52809080      10.61949350      15.06285002
C       10.60621402       2.03732329       5.55047394
C        6.45456030       1.99862513      11.57458413
C        6.46779235      15.05234053       5.54552615
C       10.61907477      15.03044612      11.53232776
C        2.03029599       5.53944980      10.61081778
C        2.03099661      11.52963010       6.47208902
C       15.04930041       5.53844793       6.46454924
C       15.04306873      11.52917315      10.60378906
C        2.03400562      14.00270648      10.56396369
C       15.01743818       3.09769306      10.55782903
C       15.02255358      13.98873102       6.51520783
C        2.07274746       3.10789544       6.52425514
C       10.54562890       2.04643351      13.96855912
C       10.57251316      15.02353818       3.12047721
C        6.51236378      15.02162238      14.03840253
C        6.51590508       2.05140886       3.08583951
C       13.98969897      10.55972639       2.04907714
C        3.09172465      10.55952248      15.02357892
C       13.98951266       6.51489093      15.02620474
C        3.08799707       6.51141815       2.05207542
C       14.07167253       2.08041578      10.56612107
C        2.97265884      15.02557038      10.57585728
C       14.07789844      15.00711572       6.50934635
C        3.02192361       2.09385287       6.52010971
C        2.07297991      10.56807228      14.07952215
C       15.00825400      10.56781404       2.99345741
C       15.00841312       6.50719851      14.08209256
C        2.07096869       6.50549761       2.99835497
C       10.57653566      14.06128743       2.11862529
C       10.55372214       3.00149426      14.97742905
C        6.50601000      14.09230954      15.06998289
C        6.50931626       2.99472997       2.06611550
H       10.28770002       4.75224471       2.80011022
H        6.79287128      12.28077276       2.84703978
H        6.80033984       4.77025730      14.25902998
H       10.26856160      12.32329813      14.29692946
H        2.81490114      10.27429897       4.77313030
H        2.81488149       6.79810530      12.30741465
H       14.26693583       6.79217530       4.76375201
H       14.25968148      10.27021960      12.30037118
H        4.76994654       2.79991575      10.30579154
H       12.30863429       2.81646997       6.80429003
H        4.77501803      14.26693484       6.80799493
H       12.32984909      14.26618410      10.28157730
H        4.88102950      10.23093286       2.83702285
H       12.19682582       6.80401818       2.81890383
H        4.88921748       6.82248305      14.24830850
H       12.17796062      10.27170436      14.26213123
H       10.25090306       2.83486006       4.90071258
H        6.81633688       2.79100745      12.22731658
H        6.81961815      14.25733452       4.89097868
H       10.26981679      14.23020478      12.18201084
H        2.82597170       4.88783441      10.25466550
H        2.82810208      12.17791302       6.83077740
H       14.25408045       4.88497190       6.81798231
H       14.24518310      12.17699500      10.24583622
H        1.71038404      13.33273584      11.35798244
H       15.32912571       3.77874156      11.34711518
H       15.33269269      13.30844175       5.72453185
H        1.76953591       3.79478055       5.73666358
H       11.33102277       1.73927443      13.28097640
H       11.36284672      15.34366572       3.79632016
H        5.71280897      15.34391305      13.37529876
H        5.72542136       1.74081148       3.76616752
H       13.30980166      11.34962216       1.73621482
H        3.77335898      11.34895983      15.33366603
H       13.31077788       5.72417683      15.33968320
H        3.76856054       5.72112015       1.74149180
H       13.41993535       1.72698854      11.36282739
H        3.59125204      15.40578303      11.38562723
H       13.42586584      15.36269083       5.71387963
H        3.68495983       1.74913660       5.72903611
H        1.71899532      11.36524391      13.42877647
H       15.36411324      11.36490737       3.64333708
H       15.36548780       5.70987884      13.43310775
H        1.71626286       5.70992514       3.65077799
H       11.37059821      13.40155150       1.77444772
H       11.34637052       3.66668419      15.31445781
H        5.70508995      13.45789376      15.44462317
H        5.71360120       3.64645211       1.71043607
C       10.23189693       6.76064541      15.65083412
C        6.83935640      10.33797910      15.66697515
C        6.84047377       6.74872422       1.42171551
C       10.23523593      10.30373106       1.44058983
C       15.64987401      10.23762315       6.74780737
C       15.65407377       6.84242498      10.32470465
C        1.42168429       6.85041219       6.75974827
C        1.42658734      10.24329951      10.32917130
C        6.73308773      15.63011887      10.25043399
C       10.31673170      15.66005303       6.85122231
C        6.76100995       1.42645851       6.85239094
C       10.30343886       1.40643797      10.23271338
C        1.71045594      15.27993904       7.10298704
C       15.38091212       1.78184304       7.11555749
C       15.38555022      15.29267085       9.96218002
C        1.67134842       1.76913788       9.95340902
C        7.12241752       1.66028942      15.32647792
C        7.12568628      15.36807741       1.80905835
C        9.97504037      15.36458090      15.30994765
C        9.96453038       1.69345940       1.78518933
C       15.29460464       7.11230001       1.69521348
C        1.78234895       7.11369899      15.38008728
C       15.28814555       9.96533275      15.37540556
C        1.78373550       9.95898630       1.69486860
H        9.40668372       7.49886581      15.64989276
H        7.68366146       9.62185511      15.65335195
H        7.66968362       7.48230728       1.42825528
H        9.40843678       9.56729766       1.44334603
H       15.63959737       9.40220542       7.47437081
H       15.64772307       7.68121596       9.60207350
H        1.42423705       7.69228294       7.47878089
H        1.43888485       9.41930548       9.58964465
H        7.46609203      15.61540026       9.42109428
H        9.59298623      15.65496066       7.68912565
H        7.51207340       1.43094186       7.66597398
H        9.58772500       1.40746266       9.38795137
H        0.87670468      16.00862836       7.08830726
H       16.20819970       1.04594923       7.11326543
H       16.23834835      15.99842906       9.96880140
H        0.79749422       1.08983351       9.94318287
H        7.13410770       0.92288114      16.15204990
H        7.12214468      16.16380831       1.03944925
H        9.99131245      16.22832252      16.00265882
H        9.97232631       0.84184611       1.07767732
H       16.02472692       7.10589033       0.86287878
H        1.04767751       7.10767889      16.20838948
H       16.01767069       9.97480343      16.20824341
H        1.04939058       9.96534893       0.86628346
H        9.88964574       5.87969463      15.08699752
H        7.15348444      11.23146271      15.10640695
H        7.17609915       5.86385961       1.98328889
H        9.89764392      11.18301343       2.00977393
H       15.08647112       9.91184166       5.86033214
H       15.08807332       7.16512090      11.21169733
H        1.99054537       7.17018635       5.87342620
H        1.98488921       9.90328126      11.21433963
H        5.84214714      15.07634462       9.91832399
H       11.20286392      15.09362167       7.17549462
H        5.88121279       1.98284210       7.20893573
H       11.18705676       1.98246993       9.91822332
H        1.38450169      14.39206632       6.54031158
H       15.72036546       2.66432594       6.55241286
H       15.68939865      14.40245071      10.53380931
H        1.39081488       2.65666032      10.54149756
H        6.59101085       1.20159118      14.48123183
H        6.57307195      15.74628569       2.68185691
H       10.54561675      15.65031115      14.41275282
H       10.53502119       1.38877063       2.67588505
H       14.40967893       6.54822487       1.36387113
H        2.66622826       6.55117282      15.71700041
H       14.40168064      10.52814010      15.70490214
H        2.66803240      10.52097300       1.35850606
H       11.08193845       7.21006443      15.11611410
H        5.99614567       9.87097096      15.13684123
H        5.99118208       7.20075549       1.95522030
H       11.08709060       9.85060146       1.96914308
H       15.12024560      11.08550744       7.20693701
H       15.12493086       5.99732131       9.86010405
H        1.95025965       6.00805727       7.22992013
H        1.95991039      11.09751927       9.88608315
H        7.17954271      15.09595259      11.10249963
H        9.85271964      15.13029336       6.00630445
H        7.19398581       1.96707455       5.99740058
H        9.82696390       1.92850649      11.07557221
H        2.56089495      15.73610908       6.57449915
H       14.53191746       1.33061889       6.58068935
H       14.54767177      15.77575038      10.48618553
H        2.48695163       1.24982730      10.47452348
H        6.55012328       2.53524742      15.67330428
H        6.58084206      14.50551361       1.39722457
H       10.49464043      14.53016174      15.80356462
H       10.48830765       2.53258773       1.30403485
H       15.75108627       6.58082002       2.54340790
H        1.33080454       6.58071500      14.53010133
H       15.74410225      10.49613640      14.52650022
H        1.33243673      10.49241383       2.54465593
H        4.12999833       1.29921359      12.91910023
O        3.49094465       0.75662834      13.43781685
H        3.44544711       1.21201460      14.30780735
